#######################

# BD of particles

dimension       3
units           lj
atom_style      atomic

lattice         sc 1.1459156 # El factor aqui es de 6/pi en 3D
region          box block 0 10 0 10 0 10
create_box      1 box
create_atoms    1 box
mass            1 1.0

pair_style      lj/cut 1.122462048
pair_coeff      1 1 1.0 1.0 1.122462048
pair_modify     shift yes

neighbor        0.3 bin
neigh_modify    every 30 delay 0 check no

# Parameters of bd/ABP: T Dt Fp Seed
fix             1 all bd/ABP 1.0 1.0 100.0 438985
#fix 1 all nve
# This is necesary in 3D
velocity all create 2.0  34234123 dist gaussian

#shell mkdir Frames
#dump            id all custom 100000 ./Frames/ABP.* id xu yu zu
dump		id all custom 100 ABP.lammpstrj id xu yu zu vx vy vz
dump_modify id sort id

thermo          1000
timestep 0.00001 # Stenhammar2014 paper
variable paso equal step
shell mv ./Frames/ABP.${paso} ./Frames/ABP.end
run             100000

#########################