echo none
units lj

units           lj
atom_style      bond
special_bonds   fene

variable T equal 1
variable L equal 10 # TAMAÑO DE LA CAJA
variable rho equal 0.2
boundary        p p p

lattice         sc ${rho}
region box block 0 $L 0 $L 0 $L
create_box 1 box bond/types 1 extra/special/per/atom 10 extra/bond/per/atom 10
create_atoms	1 box
mass		1 1.0

neighbor        0.6 multi
neigh_modify    every 1 delay 1 check yes
comm_modify     vel yes
comm_modify cutoff 2.0

bond_style      fene
bond_coeff      1 30.0 1.5 1.0 1.0  # Original Kremer-Grest

print           ""
print       "*****************************************************"
print       "PRODUCTION: Full LJ (WCA) potential, t=1e9 tau"
print       "*****************************************************"
pair_style lj/cut 1.122462048 
pair_modify     shift yes
pair_coeff  * * 1.0 1.0 1.122462048

velocity all create $T  34234123 dist gaussian

fix 1 all nve
fix 2 all langevin $T $T 2.0 48279 zero yes # Remove box COM motion by random force

#fix 3 all bond/create 100 1 1 1.0 1 prob 0.135335283 438493 iparam 1 1 jparam 1 1
fix 3 all bond/create/MC 100 1 1 1.0 1 energies 1.0 8.0 $T 438493 FENE 30.0 1.5 LJ 1.0 1.0 iparam 1 1 jparam 1 1 
#fix 4 all bond/break 100 1 1.0 prob 0.01 43874837 
#fix 4 all bond/break/MC 100 1 1.0 energies 2.0 8.0 $T 438493 FENE 30.0 1.5 LJ 1.0 1.0

thermo 100
thermo_style custom step temp ebond epair etotal press bonds 
thermo_modify norm no flush yes
dump            coord all custom 100 ManyParticles.lammpstrj id x y z
dump_modify coord sort id 

#restart 600000 $F.restart1.dat $F.restart2.dat
reset_timestep 0 
timestep        0.01
run 110000
write_data lolo.lammpsdat
