LAMMPS (2 Sep 2026)
OMP_NUM_THREADS environment is not set. Defaulting to 1 thread.
  using 1 OpenMP thread(s) per MPI task
# R1-A fresh equilibrium stress-correlation prototype; start only from r1a.equil.restart.
units lj
atom_style bond
boundary p p p
special_bonds fene
atom_modify map yes
variable prodsteps equal ${PILOT_STEPS}
variable prodsteps equal 1000000
read_restart ${F}.r1a.equil_cont.restart
read_restart Stars_NA4N10C1000rho0.85rhopoly0.8.equilibrated.r1a.equil_cont.restart
Reading restart file ...
  restart file = 2 Sep 2026, LAMMPS = 2 Sep 2026
  restoring atom style bond from restart
  orthogonal box = (-18.5725 -18.5725 -18.5725) to (18.5725 18.5725 18.5725)
  2 by 2 by 2 MPI processor grid
  pair style hybrid/overlay stores no restart info
  restoring bond style fene from restart
  43563 atoms
  40000 bonds
Finding 1-2 1-3 1-4 neighbors ...
  special bond factors lj:    0        1        1       
  special bond factors coul:  0        1        1       
     4 = max # of 1-2 neighbors
     4 = max # of special neighbors
  special bonds CPU = 0.001 seconds
  read_restart CPU = 0.008 seconds
group stickers type 2
4000 atoms in group stickers
bond_style fene
bond_coeff 1 30.0 1.5 1.0 1.0
variable rwca equal 2.0^(1.0/6.0)
pair_style hybrid/overlay lj/cut ${rwca} associating
pair_style hybrid/overlay lj/cut 1.12246204830937 associating
pair_coeff * * lj/cut 1.0 1.0 ${rwca}
pair_coeff * * lj/cut 1.0 1.0 1.12246204830937
pair_coeff * * associating 30.0 1.5 8.0
neighbor 0.6 bin
neigh_modify every 1 delay 1 check yes
comm_modify vel yes
timestep 0.01
fix integrate all nve
fix thermostat all langevin 1.0 1.0 2.0 48279 zero yes
fix kinetics stickers associating/kinetics 100 492845 10.0 4.0 1.0 ${rwca}
fix kinetics stickers associating/kinetics 100 492845 10.0 4.0 1.0 1.12246204830937
Resetting global fix info from restart file:
  fix style: associating/kinetics, fix ID: kinetics
Resetting peratom fix info from restart file:
  fix style: associating/kinetics, fix ID: kinetics
reset_timestep 0
# compute pressure ordering, verified in this tree: xx yy zz xy xz yz.
compute press all pressure thermo_temp
variable sxy equal c_press[4]
variable sxz equal c_press[5]
variable syz equal c_press[6]
variable nxy equal c_press[1]-c_press[2]
variable nxz equal c_press[1]-c_press[3]
variable nyz equal c_press[2]-c_press[3]
# Jorge's R1-A prototype cadence.  AUTO writes these six autocorrelations independently.
fix corr all ave/correlate/long 1 100000 v_sxy v_sxz v_syz v_nxy v_nxz v_nyz type auto file ${F}.gt overwrite ncorr 40
fix corr all ave/correlate/long 1 100000 v_sxy v_sxz v_syz v_nxy v_nxz v_nyz type auto file Stars_NA4N10C1000rho0.85rhopoly0.8.equilibrated.gt overwrite ncorr 40
variable t equal temp
variable ep equal pe
thermo 1000
thermo_style custom step temp pe etotal c_press[1] c_press[2] c_press[3] c_press[4] c_press[5] c_press[6] f_kinetics[1]
thermo_modify norm no
fix diagnostics all ave/time 1000 1 1000 v_t v_ep c_press[1] c_press[2] c_press[3] c_press[4] c_press[5] c_press[6] f_kinetics[1] file ${F}.r1a.stress.diagnostics mode scalar ave one format "%16.12g"
fix diagnostics all ave/time 1000 1 1000 v_t v_ep c_press[1] c_press[2] c_press[3] c_press[4] c_press[5] c_press[6] f_kinetics[1] file Stars_NA4N10C1000rho0.85rhopoly0.8.equilibrated.r1a.stress.diagnostics mode scalar ave one format "%16.12g"
run ${prodsteps}
run 1000000

CITE-CITE-CITE-CITE-CITE-CITE-CITE-CITE-CITE-CITE-CITE-CITE-CITE

Your simulation uses code contributions which should be cited:

- fix ave/correlate/long command: https://doi.org/10.1063/1.3491098

@Article{Ramirez10,
 author = {Jorge Rami{'}rez and Sathish K. Sukumaran and Bart Vorselaars and Alexei E. Likhtman},
 title =   {Efficient on the Fly Calculation of Time Correlation Functions in Computer Simulations}, journal = {J.~Chem.\ Phys.},
 year =    2010,
 volume =  133,
 number =  15,
 pages =   {154103}
}

CITE-CITE-CITE-CITE-CITE-CITE-CITE-CITE-CITE-CITE-CITE-CITE-CITE

Generated 0 of 3 mixed pair_coeff terms from geometric mixing rule
All restart file global fix info was re-assigned
All restart file peratom fix info was re-assigned
Neighbor list info ...
  update: every = 1 steps, delay = 1 steps, check = yes
  max neighbors/atom: 2000, page size: 100000
  master list distance cutoff = 2.1
  ghost atom cutoff = 2.1
  binsize = 1.05, bins = 36 36 36
  3 neighbor lists, perpetual/occasional/extra = 2 1 0
  (1) pair lj/cut, perpetual
      attributes: half, newton on, cut 1.72246204830937
      pair build: half/bin/newton
      stencil: half/bin/3d
      bin: standard
  (2) pair associating, perpetual
      attributes: half, newton on
      pair build: half/bin/newton
      stencil: half/bin/3d
      bin: standard
  (3) fix associating/kinetics, occasional
      attributes: full, newton on, cut 1.12246204830937, cut fixed 1
      pair build: full/bin
      stencil: full/bin/3d
      bin: standard
WARNING: Inconsistent image flags
For more information see https://docs.lammps.org/err0027 (src/domain.cpp:1045)
Per MPI rank memory allocation (min/avg/max) = 7.231 | 7.255 | 7.271 Mbytes
   Step          Temp          PotEng         TotEng       c_press[1]     c_press[2]     c_press[3]     c_press[4]     c_press[5]     c_press[6]   f_kinetics[1] 
         0   0.99839119     784892.76      850130.64      5.4874027      5.7434256      5.7193887     -0.017636385    0.040874401    0.13891315     1772         
      1000   0.99488596     784150.86      849159.7       5.6390632      5.6555443      5.5904806      0.15579408     0.043001008   -0.0092440322   1768         
      2000   0.99691439     785065.23      850206.61      5.5593625      5.4542301      5.4015825      0.13868909    -0.053369623    0.048921104    1761         
      3000   1.0029765      784447.65      849985.14      5.5672105      5.4086477      5.4742524      0.11361997    -0.034117326    0.047658853    1770         
      4000   0.99999556     784619.4       849962.11      5.8540722      5.58773        5.292691       0.19399663    -0.0094579815  -0.025963082    1768         
      5000   0.99514577     784425.15      849450.96      5.4717394      5.5814318      5.5468313      0.11296009    -0.063005689   -0.17682824     1770         
      6000   1.0061098      784745.82      850488.05      5.5943525      5.5277511      5.4134438     -0.093442912   -0.033554331   -0.027249552    1774         
      7000   0.99752232     785236.34      850417.44      5.5076482      5.3807518      5.68977       -0.0082697836  -0.068910771    0.097928       1778         
      8000   0.99911769     784701.99      849987.34      5.5567379      5.4746846      5.6230072      0.051459535   -0.044515489    0.053684499    1779         
      9000   1.0047215      784828.27      850479.78      5.565154       5.5819411      5.7176002      0.090957768    0.033738942   -0.046032466    1779         
     10000   1.0008479      784492.81      849891.22      5.5015865      5.7743164      5.5279005      0.014127636    0.11093922     0.13396871     1784         
     11000   1.0035471      784241.95      849816.72      5.4994769      5.5061466      5.4998241      0.068954636    0.21070792     0.017201558    1788         
     12000   0.99734562     784899.22      850068.78      5.4414378      5.5707629      5.6362945      0.16012123     0.13132686    -0.10121653     1789         
     13000   1.0042622      784510.23      850131.73      5.5547941      5.5567273      5.5354887      0.068348773    0.087844475    0.11388758     1784         
     14000   1.0001576      785204.46      850557.75      5.5288396      5.7675293      5.6861352     -0.018049684    0.075789669   -0.085007563    1782         
     15000   0.99652527     784448.43      849564.38      5.4898512      5.8180607      5.4765033     -0.059203743    0.0020915419   0.14779575     1782         
     16000   1.0032577      784413.85      849969.72      5.8618924      5.9281268      5.5874297     -0.0082447791   0.0076974215   0.041531715    1784         
     17000   0.99894184     784862.39      850136.25      5.5459864      5.5571158      5.3265884      0.13400383     0.067839143    0.0062828184   1793         
     18000   0.9945129      784763.94      849748.4       5.5865982      5.6515331      5.4140909      0.1125792      0.16509597     0.10250709     1795         
     19000   0.99792239     784504.88      849712.12      5.6067481      5.5408593      5.5241729     -0.062611623    0.056079053   -0.035568293    1791         
     20000   1.003132       784719.04      850266.69      5.8484552      5.8117681      5.4179762      0.0082612865   0.054740215   -0.019219999    1791         
     21000   1.0060658      784486.26      850225.62      5.4003573      5.8612389      5.5386272     -0.09626006    -0.039522443    0.06730019     1791         
     22000   0.99424082     784578.87      849545.55      5.7660701      5.8806547      5.442066      -0.066685612    0.16601692    -0.098059228    1789         
     23000   1.0078174      784486.38      850340.19      5.4438012      5.6429475      5.4189049     -0.019030574    0.029851944   -0.13565959     1794         
     24000   1.0093263      784656.31      850608.72      5.5439414      5.5659227      5.6432222     -0.023540588   -0.054165201    0.059739154    1791         
     25000   0.99867041     784358.1       849614.22      5.4394878      5.7458024      5.6545062     -0.052638475    0.14108175     0.084929265    1798         
     26000   0.9956767      784679.12      849739.62      5.6230322      5.6475666      5.7789034      0.037813684   -0.044068154    0.087656825    1793         
     27000   0.99646614     784212.98      849325.06      5.4963885      5.5461661      5.7070052     -0.082053654    0.095907313    0.04287935     1786         
     28000   0.99441724     784599.04      849577.24      5.6266403      5.7916351      5.8212649      0.21250667    -0.043754295    0.14453289     1786         
     29000   1.0001047      784773.85      850123.7       5.6981135      5.5699409      5.6567616     -0.0059281485  -0.12891827    -0.044767848    1785         
     30000   1.0047102      784711.22      850362         5.608929       5.5495532      5.576504       0.068550788   -0.11659435    -0.26298578     1783         
     31000   1.0038445      784786.98      850381.2       5.5958437      5.2700931      5.5602362      0.078331534    0.013797934   -0.21036382     1779         
     32000   1.0030501      784645.4       850187.71      5.3136279      5.4853878      5.6179409      0.015039724   -0.17559966    -0.0066660931   1780         
     33000   1.0040558      784123.8       849731.82      5.6625588      5.3585617      5.7157446     -0.01191821    -0.0019933573  -0.065710481    1779         
     34000   1.0002183      784568.41      849925.67      5.5389028      5.6031919      5.7236303     -0.13060133     0.16943287    -0.14685912     1781         
     35000   1.0055239      783937.03      849640.98      5.5476996      5.4589878      5.4414872      0.006087516   -0.030734327    0.17521003     1782         
     36000   1.0064922      785054.12      850821.34      5.46829        5.2317062      5.4429822     -0.082667789   -0.034472146   -0.038035994    1783         
     37000   0.99092887     785027.76      849778.03      5.8979232      5.7172272      5.5025513     -0.033955789    0.1111577      0.17778199     1777         
     38000   0.99280489     784403.77      849276.62      5.4757135      5.3053611      5.503403       0.043718513    0.088498064    0.10596247     1783         
     39000   0.99300665     784543.53      849429.56      5.6815444      5.514921       5.6043543      0.043668938    0.01747513     0.096568343    1779         
     40000   1.0026538      784793.91      850310.32      5.6653415      5.6853238      5.3665277      0.14825225    -0.026738332    0.088626218    1777         
     41000   1.0071371      784470.8       850280.16      5.5821404      5.4914331      5.4880649     -0.024703608    0.03075622    -0.056769078    1779         
     42000   0.9967459      784548.65      849679.02      5.233945       5.6746348      5.4113365      0.021173507    0.027612523    0.197697       1781         
     43000   1.000192       784552.27      849907.81      5.3509295      5.5719875      5.6334021      0.024354504    0.027872039    0.087394234    1786         
     44000   0.99884783     784392.7       849660.41      5.4863905      5.5132099      5.5022235      0.021474922    0.061182664    0.095014306    1788         
     45000   0.99932319     784251.45      849550.23      5.392142       5.3647252      5.674625       0.1203772      0.076927042    0.0358045      1794         
     46000   0.99690432     784786.6       849927.32      5.5824424      5.6478518      5.5846842     -0.19937589    -0.173906       0.0027503978   1796         
     47000   0.99967588     784640.37      849962.2       5.7842222      5.6602033      5.5093478     -0.052953585    0.16829433    -0.23535248     1799         
     48000   1.0006144      784379.52      849762.66      5.5542058      5.5595977      5.4663378     -0.043093137   -0.012615274    0.14711068     1798         
     49000   0.99700691     784716.07      849863.49      5.5247901      5.7792092      5.5792928     -0.076571234   -0.00066497819  0.047391378    1802         
     50000   0.99689666     784715.58      849855.8       5.4814758      5.5036279      5.5929501     -0.052606523    0.14269106    -0.083545344    1804         
     51000   0.99653209     784399.64      849516.04      5.771625       5.2941552      5.6007337      0.24654648     0.087120306    0.10539727     1804         
     52000   1.0020762      784670.42      850149.09      5.7132834      5.5631351      5.5951826     -0.13786436     0.0052172537   0.056488749    1799         
     53000   0.99986938     784271.93      849606.39      5.6502346      5.5282545      5.7171935      0.19036975    -0.099575965    0.068838703    1800         
     54000   0.99950792     783993.03      849303.88      5.5575745      5.7454953      5.7891888      0.11548274    -0.076110726    0.021796866    1802         
     55000   0.99943704     784421.58      849727.79      5.6376587      5.4086699      5.5453774      0.20857311    -0.0010465302   0.054524667    1803         
     56000   0.99784748     784615.81      849818.16      5.7387164      5.4492745      5.6702364     -0.038646456   -0.087419876   -0.031749378    1806         
     57000   1.0033515      784517.58      850079.58      5.7076499      5.5808754      5.7978034      0.022249771    0.28853685     0.10752094     1798         
     58000   1.0017907      784634.35      850094.36      5.7699603      5.6117066      5.6534269     -0.11933252    -0.22466479    -0.030590339    1797         
     59000   1.0010463      784217.19      849628.56      5.3456855      5.5583215      5.8049545     -0.065412258   -0.065923685   -0.091449411    1793         
     60000   1.0036422      784900.6       850481.59      5.6706521      5.7003208      5.4175208     -0.17204219     0.1016459      0.041523489    1791         
     61000   1.0012494      784636.2       850060.84      5.4699638      5.4310702      5.2849587     -0.096880386    0.0026420895   0.0074448604   1796         
     62000   1.0067329      784400.15      850183.1       5.4262031      5.5642027      5.3997187     -0.093720829    0.069687239   -0.03006936     1794         
     63000   1.0020575      784353.96      849831.4       5.7376512      5.5422524      5.4994212      0.037397923    0.092060688    0.065269018    1791         
     64000   1.0016841      784490.21      849943.25      5.6314354      5.7120131      5.5410631      0.023225036   -0.14599626    -0.09483947     1796         
     65000   0.99427381     783995.97      848964.81      5.3205833      5.5638183      5.607702      -0.025390579    0.033146304   -0.11468597     1797         
     66000   1.0017925      784529.37      849989.49      5.5401985      5.6127305      5.3592835      0.080373088    0.089175273   -0.14353615     1792         
     67000   0.99286867     784193.01      849070.02      5.5359498      5.6137505      5.5467124     -0.17621448    -0.040156486    0.044118099    1791         
     68000   1.0034918      784233.22      849804.39      5.2006491      5.4607343      5.402135       0.044779794    0.02674633    -0.092013229    1789         
     69000   0.99679709     784591.6       849725.31      5.3773191      5.3318203      5.7308038     -0.0075779899  -0.033423041   -0.10480487     1792         
     70000   1.003308       784785.76      850344.92      5.5224848      5.5397988      5.3059851     -0.036330208   -0.024268756   -0.053672795    1792         
     71000   1.0052085      784256.12      849939.46      5.5814246      5.6561619      5.4019855      0.0087203835   0.02680176    -0.037054606    1798         
     72000   0.99833217     784744.02      849978.04      5.6525122      5.6149618      5.7015837      0.10498594     0.056175871    0.11941774     1804         
     73000   0.99929733     784642.48      849939.57      5.5762401      5.646621       5.7376739      0.011398138   -0.049247146   -0.046101797    1809         
     74000   1.0055342      784544.95      850249.57      5.34939        5.6104796      5.4856576     -0.029686786   -0.035805174   -0.025347322    1810         
     75000   0.99747028     784685.02      849862.72      5.5867708      5.5404439      5.6088505      0.031084579   -0.036492468   -0.14501163     1808         
     76000   1.0043702      784179.16      849807.72      5.7196599      5.5742182      5.6049989     -0.11873805     0.12559973    -0.25968252     1798         
     77000   0.99716622     784625.45      849783.29      5.7389711      5.8312412      5.570771       0.02060337    -0.12527286     0.043656268    1805         
     78000   0.99980039     784001.23      849331.18      5.6724205      5.4815629      5.6114913      0.056082289    0.055547019   -0.014008371    1803         
     79000   0.99487174     784388.78      849396.69      5.6780062      5.6193738      5.280748      -0.21350256     0.062189407   -0.02979972     1802         
     80000   0.996563       784290.36      849408.77      5.6704236      5.4405233      5.6124157     -0.12910051    -0.0042116135  -0.050181153    1796         
     81000   1.0022477      784433.14      849923.02      5.7194355      5.6044513      5.4424425      0.15886707     0.053702189   -0.10088964     1791         
     82000   0.99948917     784766.37      850075.99      5.784668       5.3243211      5.5227812     -0.035331051   -0.24809219     0.065758275    1785         
     83000   0.99365375     784347.25      849275.57      5.7346933      5.5586887      5.4473629     -0.22487847    -0.17533685    -0.036940688    1787         
     84000   0.99934066     784258.44      849558.36      5.7040199      5.2523978      5.5673213     -0.065492661   -0.17095876    -0.089442411    1783         
     85000   1.0019718      784459.86      849931.71      5.6744434      5.3588706      5.4933078     -0.25689425    -0.019758151    0.13235983     1787         
     86000   0.99287265     784691.77      849569.04      5.6648937      5.6547424      5.4327595     -0.10445507    -0.064357133    0.0086981669   1787         
     87000   1.0039671      784477.54      850079.76      5.7488966      5.6414289      5.8035085      0.01572883     0.076558836    0.087954433    1782         
     88000   0.99547451     784797.02      849844.31      5.5730582      5.6555031      5.5738518      0.11292396     0.01354062    -0.058942691    1780         
     89000   1.0028717      784374.06      849904.71      5.4221698      5.4523601      5.524498       0.079597236    0.22794248    -0.12799834     1784         
     90000   0.9953165      784914.73      849951.7       5.5569978      5.5833765      5.5772701     -0.12367045    -0.089183994    0.12678675     1792         
     91000   1.0043663      784471.93      850100.24      5.6823586      5.4211532      5.4126276     -0.032815554   -0.079804468    0.16001083     1788         
     92000   0.99832942     784977.11      850210.95      5.7263264      5.4353782      5.7224595      0.032664403    0.067782459    0.066911256    1778         
     93000   1.0007437      784433.6       849825.2       5.6279061      5.4422156      5.5075318      0.059904934   -0.09905574    -0.094015735    1783         
     94000   1.0088646      784576.6       850498.84      5.7326141      5.613566       5.629831       0.11020859     0.050574098    0.096196006    1778         
     95000   0.99630239     784547.11      849648.5       5.4048678      5.3986306      5.4936973     -0.15794307     0.075948085   -0.0092840564   1786         
     96000   1.0019451      784811.04      850281.14      5.6294338      5.2177227      5.3993391     -0.21660786     0.023117603   -0.032307611    1792         
     97000   1.0004379      784252.1       849623.72      5.4606926      5.5147254      5.5243241      0.0093430474  -0.13067944    -0.067436502    1793         
     98000   0.99885198     784927.58      850195.57      5.4684814      5.6695395      5.5272997     -0.027742857    0.012772835    0.057811612    1785         
     99000   1.0025121      784454.68      849961.83      5.5014023      5.4052447      5.545934      -0.064314523    0.040519898    0.0023661563   1785         
    100000   0.99840282     784630.99      849869.62      5.6106048      5.6307241      5.5083896     -0.048504262    0.037655747    0.046299377    1785         
    101000   0.99908706     784733.56      850016.91      5.7288357      5.501748       5.3901018     -0.010162588   -0.053814586    0.14096146     1787         
    102000   1.00203        784726.4       850202.05      5.4463858      5.4538497      5.3876858     -0.029500989    0.1092464      0.0077982262   1790         
    103000   0.99370918     784447.37      849379.3       5.4353437      5.3087106      5.7137838      0.02988443    -0.099404044    0.034115964    1792         
    104000   1.0026565      784731.77      850248.35      5.7450811      5.4356407      5.5238897     -0.014446196   -0.14478878     0.065515957    1791         
    105000   0.99594599     784747.52      849825.62      5.4575734      5.4998636      5.5534105     -0.086441367    0.069717406    0.16210391     1783         
    106000   1.0011748      784195.12      849614.88      5.5980514      5.6267044      5.4297869      0.17779697     0.0057730043  -0.045757311    1780         
    107000   0.99733549     784508.48      849677.37      5.4518348      5.4774342      5.6553275     -0.0016924381  -0.042614845   -0.053883879    1785         
    108000   1.0020829      784512.29      849991.4       5.4981153      5.4444759      5.5094872      0.086816656   -0.037714961   -0.047766453    1785         
    109000   0.99416462     784534.67      849496.37      5.6768566      5.6595547      5.3022254     -0.10598867     0.14054041     0.065959072    1778         
    110000   1.0038094      784790.61      850382.53      5.5126486      5.5189492      5.7914237     -0.11673006     0.011860883    0.1833664      1787         
    111000   1.0053655      784610.73      850304.33      5.6410856      5.5556447      5.5792394     -0.18432399     0.049923923    0.019949424    1791         
    112000   0.99480402     784646.72      849650.2       5.4913449      5.539437       5.5917722     -0.046905018   -0.047402524   -0.10069423     1791         
    113000   1.0004663      784664.42      850037.89      5.4766563      5.330123       5.3405992      0.0026496431  -0.029903146    0.064001222    1794         
    114000   1.0042036      783856.97      849474.64      5.5885987      5.373733       5.5093449     -0.035484144    0.063478887    0.014812116    1793         
    115000   1.0010195      784596.3       850005.92      5.4533358      5.2589228      5.2502479      0.0064560028  -0.0023477067   0.046197606    1795         
    116000   0.99722799     784052.76      849214.63      5.5566502      5.5060969      5.4307369     -0.022925127   -0.018747983    0.0002111513   1796         
    117000   0.99837648     784522.9       849759.81      5.6526627      5.554035       5.5089299     -0.054379569   -0.13827889     0.081090626    1801         
    118000   1.0013447      784806.59      850237.45      6.0741089      5.5658071      5.3283902     -0.028946      -0.076666536   -0.09306225     1800         
    119000   1.0088474      784439.5       850360.61      5.6403903      5.5457341      5.3039349      0.22475416     0.073282267   -0.12397351     1806         
    120000   1.0103991      784685.74      850708.25      5.5681833      5.4804897      5.417518       0.1462644     -0.0010574027   0.059530512    1803         
    121000   1.0022293      784172.42      849661.09      5.5433624      5.6983532      5.4712222     -0.0029121584   0.14102737     0.052003738    1804         
    122000   1.0022112      784838.83      850326.32      5.6436048      5.7502025      5.8499758      0.1408423      0.019255771    0.017043579    1803         
    123000   1.0052444      784781.87      850467.56      5.6803377      5.5834412      5.5619883      0.0090924625  -0.09646455    -0.032147745    1802         
    124000   0.99937668     784609.45      849911.72      5.6566361      5.5679129      5.7074058      0.040148743   -0.057659335    0.20872611     1801         
    125000   1.0016806      784209.51      849662.33      5.505932       5.6032549      5.3869811     -0.06477457     0.02776665    -0.040846233    1796         
    126000   1.0040744      784782.3       850391.54      5.4794035      5.7669093      5.4630189      0.053185836   -0.0054476443  -0.015665752    1800         
    127000   1.0010631      784837.83      850250.3       5.5264932      5.4578886      5.4039002      0.14972085    -0.06037169    -0.039097602    1797         
    128000   0.9970605      784863.53      850014.46      5.6305119      5.6460585      5.7061581      0.11441267    -0.074510419   -0.050107327    1789         
    129000   1.0029289      784502.3       850036.68      5.584137       5.3000658      5.5043064      0.052057432    0.055107727    0.10585235     1797         
    130000   1.0007793      784609.9       850003.82      5.6903472      5.5705474      5.6518214      0.070636425    0.058791608   -0.063668117    1798         
    131000   0.99163212     784656.7       849452.92      5.4986211      5.692083       5.4624124     -0.037111958   -0.065152325    0.070202876    1799         
    132000   1.0040025      784156.22      849760.75      5.4673239      5.4575129      5.3941987     -0.020109003   -0.016800099   -0.12072858     1793         
    133000   1.002938       784445.08      849980.06      5.5679744      5.4030442      5.4960478      0.013665026    0.0044249583   0.17532251     1800         
    134000   0.9997145      784851.92      850176.27      5.4832325      5.5767971      5.5489985     -0.13792096    -0.10600689     0.031503753    1793         
    135000   0.99740367     784554.17      849727.52      5.4236483      5.6681564      5.5154946     -0.047692387   -0.01066264    -0.12225496     1791         
    136000   1.0039623      784401.55      850003.46      5.6569353      5.6929219      5.6884078      0.1889031      0.11471928     0.024696889    1793         
    137000   1.0014448      784723.17      850160.58      5.528138       5.5384813      5.5569991      0.12591087    -0.13594462    -0.0016874991   1786         
    138000   1.0011732      784229.29      849648.95      5.3385183      5.6965446      5.5501061      0.17195122     0.067084496   -0.050306053    1790         
    139000   1.0011958      784213.73      849634.87      5.3477394      5.5400892      5.6087072      0.10788561    -0.063257264    0.21419964     1788         
    140000   0.99220008     784897         849730.33      5.4529234      5.6876518      5.6741148     -0.045943421   -0.0080139355  -0.0060830471   1785         
    141000   0.99937662     784432.5       849734.77      5.5078564      5.3916869      5.4419836     -0.05982504    -0.043049354    0.061075704    1777         
    142000   0.99957873     784722.04      850037.51      5.5045648      5.4871366      5.5886233      0.1355708     -0.028668441   -0.11479459     1770         
    143000   1.0015687      784818.19      850263.69      5.5416613      5.5622896      5.5154593      0.03814888     0.060501217    0.026212919    1776         
    144000   0.99754759     784438.32      849621.07      5.5673959      5.5103518      5.3377858      0.22169126    -0.062321155    0.13349418     1776         
    145000   1.0011289      784274.91      849691.68      5.6411649      5.5065256      5.8117081      0.078955756    0.1261151     -0.026186401    1778         
    146000   1.004075       784829.03      850438.3       5.404878       5.6533764      5.6040284      0.11292389    -0.048168551    0.020185193    1778         
    147000   1.0058286      784731.87      850455.73      5.7872062      5.6018843      5.5709912     -0.078357026    0.10828172     0.12188824     1788         
    148000   1.0009426      784732.6       850137.2       5.7171153      5.6616214      5.5272462      0.1933347      0.23248836    -0.24512369     1775         
    149000   0.9982318      783889.93      849117.39      5.623935       5.7414001      5.4708277     -0.088153743    0.034804922   -0.13466031     1774         
    150000   0.99586025     784845.07      849917.57      5.805706       5.6344036      5.5498818     -0.12946517    -0.20051298     0.09390746     1779         
    151000   1.0001252      784364.47      849715.66      5.7631324      5.5757824      5.6201438      0.11921745    -0.11234408    -0.14097026     1781         
    152000   0.99991692     784644.87      849982.44      5.502148       5.4797153      5.5590119     -0.031032302   -0.052312724   -0.0063481233   1781         
    153000   1.0069029      784465.25      850259.31      5.677145       5.4783083      5.2988662     -0.082952827    0.16406971     0.060032513    1779         
    154000   0.99511238     784675.87      849699.5       5.6876559      5.4938583      5.3182817     -0.01537893     0.030263676   -0.055113038    1775         
    155000   1.005054       784744.25      850417.49      5.4515763      5.5748684      5.5932126     -0.10066231    -0.089500555    0.0077590644   1776         
    156000   0.99925913     784203.95      849498.54      5.4465282      5.4227382      5.4222034     -0.088928918   -0.10089154    -0.070262462    1783         
    157000   0.99313106     784558.53      849452.69      5.4609512      5.3392986      5.6361583      0.16579006     0.029483243   -0.0016464712   1782         
    158000   0.9997248      784517.53      849842.54      5.6162655      5.551571       5.3780597     -0.045888656   -0.014582914    0.094125293    1778         
    159000   0.99549251     784647.66      849696.13      5.368064       5.6573925      5.3707825     -0.043637937   -0.014897647    0.062482701    1774         
    160000   0.99897771     784374.38      849650.58      5.6386603      5.3857136      5.6649135     -0.064683651    0.041892894    0.056430691    1777         
    161000   0.99859493     784626.83      849878.02      5.5769788      5.6591796      5.3975335      0.028878221    0.052560965   -0.059798931    1779         
    162000   0.99877434     784733.83      849996.74      5.7653035      5.383182       5.4200295     -0.19084541     0.061453092    0.078346392    1771         
    163000   0.99461092     784555.77      849546.63      5.3667118      5.6555232      5.5498694     -0.018366308    0.05574054     0.0025314626   1776         
    164000   0.99626975     784304.37      849403.62      5.4353647      5.3802517      5.4767997     -0.00062212672 -0.13383094    -0.034592325    1779         
    165000   0.99573011     784651.64      849715.64      5.7749226      5.6024336      5.5451112     -0.026903018    0.066632594    0.077576359    1778         
    166000   0.99637246     784527.05      849633.01      5.5563008      5.5902637      5.4646555     -0.10436538    -0.008977949    0.0086808134   1770         
    167000   0.99977157     784651.41      849979.48      5.6256572      5.6733963      5.6903464     -0.03137511     0.16170069     0.0028042282   1770         
    168000   0.99540768     784405.12      849448.05      5.6373812      5.3197129      5.4332096     -0.0081094301  -0.05387079    -0.054952762    1769         
    169000   0.99772271     784772.55      849966.75      5.5856956      5.6300396      5.4140887      0.062573261    0.13391579    -0.010353093    1772         
    170000   0.99513091     784546.51      849571.35      5.4693757      5.4305614      5.3941341      0.010066083    0.061312929    0.12656478     1766         
    171000   0.99814823     784870.04      850092.04      5.6259655      5.3139077      5.7723245      0.038127381   -0.01615994     0.005869514    1769         
    172000   0.99668937     784788.29      849914.97      5.6334346      5.4415878      5.7742607      0.094898392   -0.019373927   -0.035937888    1763         
    173000   0.99810819     785127.06      850346.45      5.6521259      5.4803205      5.6518203     -0.1454815      0.011369134    0.02067395     1770         
    174000   1.0019811      784559.63      850032.09      5.6620491      5.4030578      5.3309677      0.067726394    0.10014389    -0.060066782    1763         
    175000   1.0023352      784940.07      850435.66      5.6138884      5.585901       5.5030068     -0.089742363    0.085073934    0.0926542      1764         
    176000   1.0039959      784983.06      850587.17      5.7513541      5.7304385      5.6559074     -0.23565438     0.10212595     0.055129749    1770         
    177000   1.0033441      784835.99      850397.51      5.9094258      5.7412446      5.4420998      0.050117019    0.1452995     -0.083588455    1772         
    178000   1.0000455      784615.8       849961.78      5.5178784      5.6076501      5.5359475      0.11673545     0.11518995     0.015967725    1766         
    179000   0.9950235      785079.02      850096.84      5.5425051      5.5282856      5.7346433     -0.00041245387  0.059100546    0.10123387     1763         
    180000   0.99654869     784574.56      849692.04      5.5527059      5.5152808      5.514707       0.044765683    0.070862224   -0.21366921     1759         
    181000   1.002106       784515.96      849996.57      5.5183018      5.6550893      5.5824115     -0.11870761     0.0082088829   0.014060304    1763         
    182000   1.0003514      784705.75      850071.71      5.5109203      5.6031424      5.4263155      0.078152084   -0.13003076    -0.002979233    1760         
    183000   1.0032398      784713.53      850268.23      5.4002649      5.7325777      5.6633776     -0.0054020092   0.17470947     0.094331084    1771         
    184000   1.0016285      784813.6       850263.01      5.7083241      5.5540194      5.3989617     -0.034405785   -0.010731407   -0.13690955     1772         
    185000   1.0027673      784594.19      850118.01      5.4486823      5.744828       5.6617543     -0.10203633    -0.049784377   -0.048495183    1764         
    186000   1.0023286      784647.93      850143.09      5.589081       5.7569883      5.63831       -0.13188735    -0.060977513   -0.060133438    1769         
    187000   1.0027427      784322.29      849844.51      5.5494851      5.6167677      5.6990559      0.062648319   -0.011896693   -0.0078147024   1772         
    188000   0.99710115     784407.35      849560.93      5.4872034      5.5305623      5.5871813     -0.25304034    -0.019859265   -0.12792748     1773         
    189000   0.99774156     784561.46      849756.89      5.6347162      5.7062386      5.6462791     -0.071001498   -0.061790915   -0.066705982    1770         
    190000   0.99749853     784617.23      849796.78      5.738062       5.4471222      5.6445802     -0.1407749     -0.12757831     0.013779841    1769         
    191000   0.99901254     785111.09      850389.57      5.4699402      5.4364965      5.7434874     -0.11422826     0.036180947    0.05968801     1772         
    192000   0.99959242     784440.6       849756.97      5.3463255      5.6155559      5.3914068      0.081696204    0.034790264    0.019636952    1777         
    193000   0.99555945     784808.22      849861.06      5.5090931      5.4777712      5.5476195      0.025478169    0.10345297    -0.03315775     1779         
    194000   0.99721199     784896.18      850057.01      5.5113124      5.3931992      5.4325424      0.0080039175  -0.061128256    0.0014733285   1778         
    195000   0.9964029      784306.41      849414.36      5.5824468      5.4964936      5.5760935      0.10788203    -0.06748323    -0.11443362     1776         
    196000   1.0039517      784651.54      850252.76      5.4648921      5.4755378      5.505091      -0.20683677    -0.047272519    0.0032056046   1785         
    197000   1.0030264      784907.12      850447.87      5.4427409      5.634168       5.667274       0.15061277    -0.017785869    0.027728776    1784         
    198000   0.99531837     784470.17      849507.25      5.2805652      5.5783657      5.5028891     -0.18121628     0.052447096    0.10071175     1781         
    199000   0.99945396     784652.44      849959.76      5.3344473      5.5132405      5.5816396     -0.031214394   -0.059431537   -0.038822176    1781         
    200000   1.0018396      784438.63      849901.83      5.4506521      5.7345411      5.723571      -0.044244361   -0.10843565     0.027261429    1786         
    201000   0.99702139     784563.25      849711.62      5.297845       5.6746864      5.5634888     -0.086389601    0.024374215   -0.031147808    1784         
    202000   0.99444707     784411.42      849391.58      5.3725001      5.4307356      5.5302521     -0.099685082   -0.010585386   -0.090919545    1787         
    203000   0.99812079     784514.31      849734.51      5.4830863      5.7153056      5.6914834      0.087336264    0.15719677    -0.011987726    1797         
    204000   1.0005366      784352.89      849730.95      5.5202348      5.6935304      5.6091619     -0.061469395   -0.083514876   -0.063758038    1798         
    205000   1.0009389      784596.56      850000.91      5.4281162      5.3919631      5.6643478      0.11231241    -0.046995639   -0.11447191     1797         
    206000   0.99262309     784330.06      849191.03      5.5951066      5.2739366      5.6202593      0.046892576   -0.21030259     0.0096065368   1803         
    207000   1.0015834      784313.94      849760.4       5.3650275      5.4119388      5.4888455     -0.082394405   -0.061625548   -0.048151358    1800         
    208000   1.0023023      784654.22      850147.66      5.4259549      5.6892658      5.6671627     -0.035919706    0.13600932     0.054026315    1798         
    209000   0.99801183     784054.58      849267.67      5.4099333      5.5450084      5.5130538     -0.018339313   -0.20001116     0.16615584     1799         
    210000   0.99489133     784117.71      849126.9       5.501679       5.5050263      5.3917818      0.037275225    0.19370706     0.041292098    1805         
    211000   0.99594675     784071.57      849149.72      5.4586164      5.7417         5.5482462      0.098402316   -0.080748917   -0.10433288     1801         
    212000   1.0043795      784497.21      850126.38      5.4358253      5.4829318      5.6068362     -0.0271711     -0.02886632    -0.079098838    1797         
    213000   0.99462835     784563.31      849555.31      5.5596331      5.3671845      5.4257608      0.055082455   -0.12189051    -0.13756176     1801         
    214000   0.99885911     784688.27      849956.72      5.6315289      5.3631069      5.4885361      0.17266572     0.15772492     0.12040282     1801         
    215000   0.993327       784556.1       849463.06      5.6067352      5.3626981      5.6454328      0.07114082    -0.061056709   -0.028737882    1807         
    216000   0.99742277     784114.86      849289.45      5.5289839      5.4923546      5.6450632      0.056173144   -0.028993897    0.085608822    1813         
    217000   0.9945148      784076.11      849060.69      5.6293755      5.6154426      5.3423245     -0.15792838     0.15573849    -0.15093574     1813         
    218000   1.0006784      784595.38      849982.71      5.6432464      5.4391072      5.5186449      0.18528354    -0.1640106     -0.17834285     1814         
    219000   0.99826937     784472.47      849702.39      5.6397651      5.6714926      5.7051305     -0.10692522    -0.021179058    0.034317712    1811         
    220000   1.0036301      784098.39      849678.59      5.5492316      5.5281007      5.2729972     -0.074768814    0.097166082   -0.042071304    1807         
    221000   1.0005116      784229.67      849606.1       5.4184572      5.6393085      5.4887234      0.09696043    -0.16780628     0.059691806    1804         
    222000   1.0076681      784504.22      850348.28      5.5701794      5.369085       5.4206852     -0.062303927    0.12361318    -0.038997329    1807         
    223000   0.99723168     784403.22      849565.33      5.4248812      5.5296866      5.5159311      0.05413966     0.031919062   -0.048374515    1801         
    224000   1.0053948      784382.87      850078.38      5.5488322      5.5775394      5.6382941     -0.011008774    0.029054988   -0.22648685     1797         
    225000   1.0009265      784358.55      849762.09      5.5315709      5.4938877      5.5053491     -0.086111749   -0.0027317577  -0.16194037     1801         
    226000   1.0029505      784275.8       849811.6       5.5459709      5.5181615      5.4264767      0.1394919     -0.091861839    0.15974139     1803         
    227000   1.0051754      784604.28      850285.46      5.6993731      5.6140949      5.7906428     -0.18491825    -0.14821731     0.092348086    1800         
    228000   0.99593425     784652.76      849730.1       5.5775136      5.679961       5.5590357      0.073834404   -0.020504877    0.13563647     1797         
    229000   1.0041165      784461.46      850073.44      5.4574662      5.5416826      5.4509003     -0.0077655544   0.14464358     0.0068694185   1799         
    230000   0.99316937     784694.06      849590.73      5.7241264      5.6843303      5.5387544      0.12912545    -0.13486205    -0.0092294859   1801         
    231000   1.0031537      784057.64      849606.72      5.2769099      5.3746385      5.5352557      0.065515535   -0.1301204      0.058571973    1806         
    232000   1.0045088      783883.06      849520.68      5.4853211      5.4270022      5.4500666     -0.030747863    0.043212584   -0.079067271    1798         
    233000   1.0004797      785005.37      850379.71      5.453026       5.4396262      5.6888097     -0.0060097203  -0.0035221662  -0.047701368    1801         
    234000   1.001899       785130.52      850597.61      5.5201233      5.5294385      5.4487861     -0.097505205    0.07229577    -0.2234394      1797         
    235000   0.99646616     784925.98      850038.07      5.3975339      5.5048469      5.4627191     -0.10364587    -0.015750464    0.025000813    1796         
    236000   1.0023291      784622.5       850117.69      5.3473353      5.3272626      5.5154201     -0.088392057    0.056858026   -0.10881927     1797         
    237000   1.001519       784384.18      849826.44      5.6545025      5.6879852      5.3915674      0.092863011   -0.0032007259   0.062745742    1800         
    238000   1.0020739      784302.03      849780.55      5.3817054      5.3484219      5.4304401     -0.045794981    0.075279273   -0.15110301     1797         
    239000   1.0014459      784407.69      849845.17      5.5402853      5.6678914      5.5313481      0.003529415   -0.11424732    -0.10540689     1798         
    240000   0.99510261     784649.77      849672.76      5.613734       5.5479173      5.5612671      0.012999336   -0.11409599    -0.10504329     1797         
    241000   0.99715434     784391.11      849548.16      5.6171712      5.4693317      5.4118603      0.10111762    -0.08932246     0.028683748    1793         
    242000   1.0024312      784572.43      850074.29      5.4301682      5.4791035      5.4796287      0.035804592   -0.016074258   -0.086247839    1794         
    243000   1.0011237      784439.62      849856.04      5.4777147      5.6627558      5.6923817     -0.093376635   -0.01317455    -0.19449287     1794         
    244000   1.0008531      784034.33      849433.07      5.6660903      5.238737       5.8538431     -0.10198858     0.067657114    0.049189247    1792         
    245000   0.99651055     784230.05      849345.04      5.4236827      5.6151075      5.617536       0.043833128    0.12133967     0.047378733    1796         
    246000   1.0030028      784866.3       850405.51      5.7084863      5.4296684      5.6244649     -0.0068374882   0.026416449   -0.041900086    1794         
    247000   1.0015597      784398.14      849843.06      5.6351107      5.5354678      5.4308316     -0.058149055    0.066686141   -0.046059209    1798         
    248000   0.99769118     784521.6       849713.74      5.5025019      5.6318217      5.5274523      0.098806058   -0.030832454    0.014570698    1795         
    249000   0.99598139     784493         849573.41      5.5975115      5.5885786      5.7183759      0.0076580753  -0.10460194    -0.015874495    1787         
    250000   0.99824661     784519.73      849748.16      5.5065189      5.5440034      5.6891019     -0.13293673     0.16160638     0.024604974    1782         
    251000   0.99367574     784679.01      849608.77      5.5304526      5.5749417      5.7360382     -0.0033553171   0.16475319     0.0057164299   1779         
    252000   0.99868783     784058.06      849315.32      5.7843395      5.6722734      5.6079261      0.027659531    0.15396208     0.035912245    1780         
    253000   1.0010558      784883.49      850295.48      5.795399       5.463637       5.9006403     -0.02843745     0.090937531   -0.089011286    1783         
    254000   0.99363349     784432         849359         5.4863731      5.5638303      5.7172817     -0.021212708    0.15713959     0.048884728    1782         
    255000   1.0040941      784705.49      850316.01      5.5118579      5.4319371      5.587569       0.23608888     0.081910711   -0.02674577     1783         
    256000   0.99835486     784599.69      849835.2       5.5428771      5.317033       5.5653851     -0.072590878    0.10336218     0.13093608     1790         
    257000   0.99668749     784485.15      849611.7       5.8236988      5.3764138      5.8577849     -0.15521625    -0.088236056    0.099532269    1789         
    258000   0.9964641      784541.89      849653.85      5.198544       5.5209291      5.6295846     -0.079508261    0.072244449   -0.1403279      1790         
    259000   0.99768202     784462.96      849654.5       5.6176373      5.4147809      5.627849       0.072953992    0.2029721      0.037544261    1796         
    260000   1.0021121      784531.48      850012.49      5.3014754      5.5265188      5.6856509      0.014109805    0.018134756    0.091599155    1797         
    261000   0.99729874     784829.08      849995.57      5.4571034      5.7080222      5.4889922     -0.0072011903   0.0047116846   0.2723315      1790         
    262000   1.0062815      784585.85      850339.3       5.5651397      5.7169998      5.6350592      0.039116036    0.033894998    0.072223339    1791         
    263000   1.0007262      784710.59      850101.04      5.3620154      5.5959927      5.7094818     -0.029123729   -0.031705705   -0.12643871     1786         
    264000   1.0041098      784697.32      850308.87      5.5621674      5.379612       5.7448552     -0.041398772   -0.12424117    -0.059625164    1790         
    265000   0.99877514     784516.57      849779.54      5.4690426      5.5204576      5.5416109      0.059977536   -0.064373534    0.12466642     1792         
    266000   0.99792668     784773.38      849980.91      5.6071407      5.4954639      5.5337121     -0.12937094     0.098534123   -0.1481941      1792         
    267000   1.0053841      784653.84      850348.66      5.580071       5.5443784      5.5200328      0.018757343   -0.014252017   -0.059746772    1788         
    268000   1.0047709      784583.57      850238.31      5.4947447      5.7353832      5.693267       0.17826036    -0.24188576     0.12715372     1783         
    269000   0.99318639     784300.74      849198.52      5.468714       5.3301471      5.5819076      0.011036207   -0.12520804    -0.04286747     1782         
    270000   0.99781626     784838         850038.3       5.4689311      5.4896967      5.6706972      0.056550297    0.081530886   -0.11542109     1780         
    271000   0.99651804     784846.23      849961.71      5.4239304      5.5999176      5.526144       0.13322567    -0.02392971    -0.09598188     1779         
    272000   1.0068332      784280.45      850069.95      5.3671442      5.5946776      5.5183692      0.13402581    -0.10741635     0.041708458    1783         
    273000   1.0000288      784719.61      850064.49      5.5520704      5.4856363      5.5586168      0.034360531   -0.1324899     -0.0066696663   1777         
    274000   1.0018759      784505.71      849971.28      5.4630225      5.4741779      5.3958407     -0.037917197    0.053686076   -0.079994592    1783         
    275000   1.0111569      784730.36      850802.38      5.367006       5.6408744      5.5234443     -0.082946659    0.046030255    0.097887804    1783         
    276000   1.0006798      784218.3       849605.72      5.5244588      5.5767798      5.5780562     -0.14773939     0.0068923224   0.069370821    1784         
    277000   1.006092       784279.13      850020.2       5.3956396      5.4251286      5.6085749     -0.089620496    0.049768827    0.058916166    1782         
    278000   1.0013764      784081.55      849514.49      5.7371083      5.4101391      5.7330405      0.12896727    -0.069494986   -0.016564162    1780         
    279000   1.003127       785033.79      850581.12      5.5437145      5.4476727      5.5416922      0.13711427     0.00077259221 -0.051138875    1785         
    280000   0.99465852     784749.97      849743.94      5.7185176      5.676673       5.8276916      0.0027516955   0.090432331   -0.089601871    1784         
    281000   1.0027413      784631.64      850153.77      5.4361303      5.4495707      5.5418609     -0.12518249     0.064507061    0.056337052    1788         
    282000   0.99673591     784387.75      849517.47      5.3986291      5.5066758      5.4883381      0.054693172    0.060439309   -0.028944685    1788         
    283000   1.002222       784331.65      849819.84      5.3879214      5.7186981      5.5192192      0.10949697     0.036156985    0.0067803307   1792         
    284000   1.0009729      784576.81      849983.39      5.635469       5.6454673      5.7072188     -0.17323146     0.14833746    -0.080929513    1791         
    285000   1.0016419      784145.84      849596.12      5.5324321      5.7472169      5.6075633     -0.041384146    0.046095104   -0.15594917     1790         
    286000   0.99827964     784465.86      849696.44      5.3340456      5.7484527      5.489225       0.035491529   -0.041430041   -0.15275971     1791         
    287000   0.99577138     784648.48      849715.17      5.5301378      5.7688025      5.5399338     -0.082786969   -0.036013016    0.060422347    1788         
    288000   1.0100556      784835.09      850835.16      5.7682223      5.6699489      5.7017145     -0.059742496    0.12326225    -0.061807568    1788         
    289000   0.99680278     784250.47      849384.56      5.6276395      5.4256602      5.6609961     -0.23266318     0.15977144    -0.11271457     1789         
    290000   1.0013351      784386.47      849816.71      5.4650371      5.645188       5.5089489      0.12630038    -0.03091956     0.083848435    1789         
    291000   0.99778409     784658.87      849857.07      5.7866017      5.4181639      5.3241649     -0.090066401    0.15072146     0.15054287     1785         
    292000   1.0065771      785140.13      850912.9       5.6824412      5.7374646      5.6647026     -0.057847318   -0.065557808    0.06194976     1783         
    293000   1.0033332      784284.58      849845.38      5.5247012      5.2536181      5.2712044     -0.0067019667  -0.2401091      0.061886961    1789         
    294000   0.9972243      784980.14      850141.77      5.6513073      5.2213306      5.6159119      0.035861266    0.0085227979   0.11748459     1785         
    295000   0.99857274     784636.33      849886.06      5.5411703      5.5008667      5.3927072     -0.045869369    0.078860768    0.063363762    1786         
    296000   0.99201416     784877.05      849698.23      5.5402579      5.5153391      5.8533203     -0.1195347     -0.015401101    0.043526715    1787         
    297000   0.99961913     784329.27      849647.39      5.8988561      5.5099112      5.7810306      0.049438097   -0.12877024     0.074371676    1788         
    298000   1.004347       784491.95      850119         5.7464412      5.4298151      5.6186279     -0.061041939   -0.10118781    -0.17869438     1791         
    299000   0.99832427     784394.7       849628.21      5.6957579      5.5145041      5.5962392     -0.093595536    0.082055903   -0.069685292    1790         
    300000   0.99901505     784736.81      850015.45      5.7011842      5.5432701      5.667272      -0.052764966   -0.042839739   -0.077024166    1780         
    301000   1.0029439      784761.94      850297.3       5.5413348      5.7317976      5.755802      -0.047912327   -0.01904565     0.0078140857   1788         
    302000   1.0005483      783985.57      849364.4       5.4163539      5.383263       5.699291       0.055737581    0.086015739    0.14248229     1789         
    303000   0.9957739      784812.32      849879.17      5.5153121      5.5930562      5.6229167     -0.029639955    0.097067114   -0.0084622942   1784         
    304000   1.0008336      784533.53      849931         5.5036911      5.5976081      5.4657605     -0.1835823     -0.19285723    -0.056897161    1783         
    305000   1.0038596      784530.51      850125.71      5.5966845      5.7849786      5.7301157      0.17666561     0.0018770331  -0.092862419    1785         
    306000   0.99892046     784692.56      849965.02      5.5804592      5.7506779      5.5390539      0.013241315   -0.10468128    -0.062166588    1784         
    307000   1.0030359      784759.47      850300.84      5.4528881      5.6281214      5.7577197      0.038042794    0.049837388   -0.26913484     1777         
    308000   0.99744811     784209.48      849385.73      5.5362161      5.7406932      5.6629193     -0.14774001    -0.23385764     0.07842512     1786         
    309000   0.99713606     784178.24      849334.1       5.4403694      5.6423379      5.5207528      0.037665877   -0.0864319     -0.070144888    1788         
    310000   0.99802527     784682.66      849896.62      5.5152826      5.5100518      5.3808289      0.037070714    0.040214069   -0.00032767434  1782         
    311000   1.0031639      784525.33      850075.07      5.6058232      5.3687794      5.6950738      0.053422434    0.05057116    -0.079092683    1791         
    312000   1.0078536      784662.97      850519.15      5.75237        5.497614       5.6791782     -0.048167225   -0.11161383     0.14921041     1791         
    313000   0.99857521     784386.14      849636.04      5.5487901      5.5404102      5.481247      -0.10093239     0.077998369   -0.078157984    1794         
    314000   0.99619718     784506.81      849601.32      5.3853536      5.5323695      5.4863448     -0.054112724    0.017483373   -0.016276023    1796         
    315000   0.99464911     784804.95      849798.3       5.6932319      5.5487775      5.7036729      0.0066337882   0.082530886    0.11381515     1794         
    316000   1.0079423      784578         850439.97      5.428684       5.5606823      5.6801156      0.13289272     0.015196195    0.042425777    1793         
    317000   0.99823799     784628.87      849856.74      5.4738523      5.4958239      5.4873471      0.0325012      0.046564903    0.073969683    1797         
    318000   1.003372       784329.99      849893.33      5.4815528      5.7265174      5.7582388      0.069293188    0.062029577    0.0034242219   1804         
    319000   1.0035147      784509.77      850082.43      5.5444918      5.5702831      5.5282124     -0.036664319    0.18830403    -0.055901406    1801         
    320000   0.99429998     784555.06      849525.6       5.4041447      5.6638408      5.6125375      0.028722732   -0.09587896    -0.079812442    1807         
    321000   1.0024795      784347.93      849852.94      5.4205123      5.7244386      5.4675829     -0.064272756   -0.045137928    0.019759355    1812         
    322000   0.99875836     784233.11      849494.97      5.6649701      5.6764413      5.5262629     -0.000579065    0.018070954    0.070598604    1815         
    323000   0.99926148     784264.22      849558.96      5.517438       5.5575703      5.2112928     -0.04893013    -0.053363784   -0.045275298    1809         
    324000   1.006509       784632.68      850401         5.7254311      5.4903044      5.7428169      0.057275302   -0.1238002     -0.14003323     1805         
    325000   0.99931024     784286.09      849584.02      5.4311708      5.3972787      5.4273415     -0.048530596    0.046963981    0.082380122    1804         
    326000   0.99788633     784501.93      849706.82      5.3090843      5.5044252      5.3664928      0.093239213   -0.013486688   -0.10401253     1799         
    327000   1.0005116      784487.03      849863.45      5.5062304      5.50957        5.4886795     -0.0030562272   0.018452382   -0.089747057    1797         
    328000   1.0021019      784371.16      849851.5       5.5021965      5.5456611      5.4206        -0.024058465   -0.0077001322  -0.069607489    1797         
    329000   1.0022558      784408.53      849898.94      5.7171824      5.4808926      5.6227032     -0.037666928    0.14132202    -0.0088337644   1794         
    330000   0.99865033     784304.12      849558.93      5.4983582      5.4323606      5.2931417     -0.0061355277  -0.069478341    0.06582683     1791         
    331000   0.99688224     784192.21      849331.49      5.5770169      5.2955992      5.56981        0.15950211     0.10235578     0.062504511    1786         
    332000   0.99924603     784400.6       849694.33      5.6564095      5.885565       5.6423674      0.032140555    0.14041235    -0.0019160091   1794         
    333000   1.0055072      784536.77      850239.62      5.5059087      5.5998856      5.4724522     -0.12223833     0.0084526675   0.062111326    1798         
    334000   1.000868       784084.3       849484.02      5.1886541      5.2698511      5.7109626     -0.097049642   -0.079906277    0.063257707    1801         
    335000   1.0039155      784431.84      850030.69      5.4648632      5.4796284      5.7293201     -0.10655242     0.062412622    0.036787038    1799         
    336000   1.005583       784268.53      849976.34      5.2955851      5.8348523      5.5321969      0.018068304   -0.1076957     -0.013854591    1796         
    337000   1.0064442      784801.41      850565.49      5.5417712      5.741374       5.7494622     -0.10480759     0.024217588    0.022549005    1789         
    338000   1.0025644      784377.12      849887.69      5.2958116      5.5625645      5.6228388     -0.00068909706 -0.11807296     0.0047452103   1788         
    339000   1.0012047      784670.83      850092.55      5.4587456      5.617001       5.6459066     -0.15137015     0.012117004   -0.060665632    1790         
    340000   1.000238       784376.36      849734.91      5.6364509      5.7110605      5.5889538     -0.06203814    -0.18246753    -0.29588862     1784         
    341000   0.99615177     784449.29      849540.84      5.4303701      5.437021       5.6388003     -0.073794114   -0.018838357    0.078116212    1782         
    342000   0.9967578      784603.32      849734.47      5.4316666      5.6738014      5.5368675      0.031877195   -0.10807997    -0.11895027     1786         
    343000   0.99794119     784888.93      850097.4       5.4758631      5.5874607      5.6786054     -0.048585539    0.072390795   -0.037250963    1787         
    344000   0.99793107     784794.44      850002.25      5.4952616      5.5021129      5.7968959     -0.0071072711   0.036132418   -0.12677842     1795         
    345000   0.99907141     784131.85      849414.18      5.6531659      5.6611381      5.8105956     -0.1183883     -0.097992881   -0.034642214    1788         
    346000   1.003513       784330.85      849903.4       5.6508624      5.5729017      5.7496788     -0.065157065   -0.014846967   -0.11486934     1793         
    347000   1.0056461      784310.42      850022.35      5.7007531      5.6101833      5.7952856     -0.040611528   -0.014487308   -0.024147934    1794         
    348000   1.0037605      784301.09      849889.81      5.5952429      5.625413       5.7818892     -0.15750548     0.0085319226   0.00353016     1792         
    349000   1.0042064      784226.32      849844.17      5.730903       5.6351742      5.4682133     -0.15244787     0.028101042    0.26582609     1795         
    350000   1.0000341      784624.48      849969.7       5.5505778      5.7072379      5.7394492      0.052254617    0.051548736   -0.0048088479   1797         
    351000   0.99733866     784625.17      849794.27      5.4803463      5.6650193      5.4853138     -0.06920739    -0.019800016    0.0041696769   1797         
    352000   0.99540273     784605.64      849648.24      5.6819785      5.5426891      5.5029312     -0.036379147    0.13754382    -0.15936545     1803         
    353000   0.99829177     784297.24      849528.62      5.3515945      5.4066921      5.5743454     -0.10314505    -0.093607903   -0.16004012     1801         
    354000   0.98969172     784533.3       849202.73      5.6325777      5.5122647      5.6862994     -0.0012182215  -0.16784066     0.098158919    1803         
    355000   0.99916552     784494.08      849782.55      6.0385082      5.6483816      5.5851696      0.11369451     0.072053872   -0.19366287     1804         
    356000   0.9952443      784470.68      849502.92      5.8521521      5.4479545      5.6420443      0.2290078     -0.11691731     0.10930984     1805         
    357000   1.0059054      784517.9       850246.78      5.5376835      5.7912607      5.455763      -0.0028270015   0.039399764   -0.23419683     1797         
    358000   1.0032172      784780.31      850333.53      5.6376999      5.6945752      5.6870911      0.19045841    -0.079551393   -0.019099437    1797         
    359000   0.99866858     784504.49      849760.49      5.603547       5.7266426      5.8283732     -0.11901304     0.025084393   -0.046069004    1798         
    360000   0.99871882     784171.19      849430.47      5.2930955      5.3160117      5.6115987     -0.08311149     0.089155194   -0.11616168     1796         
    361000   1.0007174      784307.94      849697.82      5.5334919      5.7244074      5.8221698      0.065114295   -0.020673405    0.073320197    1791         
    362000   1.0022839      784884.98      850377.22      5.6202457      5.8174273      5.6263706      0.0091705557  -0.17193104    -0.089186047    1789         
    363000   0.99264623     784579.19      849441.67      5.6588876      5.4117002      5.4872556      0.17976379     0.083184503    0.14822056     1784         
    364000   1.0021305      785016.09      850498.3       5.6716708      5.6828106      5.678772      -0.042169952    0.049470939   -0.076753332    1786         
    365000   1.0049793      784609.75      850278.12      5.5406202      5.6693269      5.5168515      0.05615312    -0.049236855    0.061289755    1780         
    366000   1.0007842      784712.19      850106.43      5.6256882      5.4910095      5.4946842     -0.10657985     0.03246535    -0.035100684    1787         
    367000   1.0025919      784521.31      850033.67      5.7604213      5.601576       5.4524554      0.02590765     0.016304173    0.15344902     1786         
    368000   1.0015306      784619.19      850062.21      5.7239522      5.8479329      5.8815007     -0.043445849    0.049259717    0.0866065      1784         
    369000   1.0019994      785067.66      850541.31      5.5330773      5.8577539      5.5301619      0.072093951   -0.15656776    -0.014110853    1783         
    370000   0.99875653     784327.47      849589.21      5.8634135      5.2912167      5.6534859     -0.10163485    -0.073607845   -0.024732578    1779         
    371000   1.0040405      784511.65      850118.67      5.289808       5.5757673      5.5083951     -0.040245556    0.048389283   -0.10952962     1780         
    372000   1.0037408      784601.52      850188.95      5.4201686      5.5225951      5.4542547     -0.092124083   -0.15365363     0.094439644    1775         
    373000   1.004685       784294.89      849944.02      5.4208776      5.8930558      5.4241174      0.07030911     0.040903287    0.016778867    1782         
    374000   0.99697311     784583.83      849729.04      5.4304094      5.7669509      5.4135155      0.11526014    -0.092784712    0.1684837      1784         
    375000   0.99784059     784490.76      849692.66      5.6565851      5.4921417      5.5056738     -0.026051299   -0.067094784   -0.065431594    1783         
    376000   0.9971054      784639.12      849792.98      5.3861524      5.7731879      5.5578631      0.047471811   -0.024670972    0.12014981     1781         
    377000   1.0072974      784348.99      850168.83      5.6233465      5.7080992      5.5392836     -0.0097705903   0.12272305    -0.084311422    1776         
    378000   0.99820467     784559.57      849785.26      5.3134485      5.2447906      5.4346347     -0.10060274     0.01156574    -0.15831467     1779         
    379000   1.0008795      784272.47      849672.93      5.5552533      5.6373843      5.5612077      0.049573462    0.044258601   -0.15524674     1783         
    380000   0.99863767     784208.05      849462.03      5.7071785      5.6750927      5.5281119     -0.10313207     0.10656416    -0.11680561     1781         
    381000   0.99431227     785087.26      850058.61      5.6810548      5.5472773      5.5066034      0.11367646     0.15201534    -0.15819728     1779         
    382000   0.99273004     784606.13      849474.09      5.6597585      5.5759509      5.638251       0.15642674    -0.12163641    -0.07826157     1776         
    383000   0.99981442     784573.08      849903.95      5.5939018      5.4450961      5.7068355     -0.00017390614 -0.091896241   -0.031951583    1775         
    384000   1.001247       784704.86      850129.34      5.5513089      5.3743005      5.4158909     -0.024724595   -0.053156144   -0.072359511    1779         
    385000   0.99732966     784796.16      849964.68      5.4844412      5.5453035      5.572847       0.11174582    -0.0066255214  -0.08028695     1783         
    386000   1.0059136      784485.06      850214.48      5.7524758      5.4916232      5.5797736      0.044549168   -0.007286591   -0.0079930675   1782         
    387000   1.0047288      784552.57      850204.56      5.7974234      5.525135       5.7108587     -0.031603669    0.035581089   -0.048944716    1791         
    388000   0.99953129     784892.53      850204.91      5.6885907      5.7244228      5.8841618     -0.048841743    0.11930822     0.10367985     1792         
    389000   0.99874367     784384.63      849645.54      5.5483592      5.5112787      5.5865889     -0.02027394    -0.15217142     0.083663137    1799         
    390000   0.99604951     784792.32      849877.18      5.5290071      5.4637854      5.747529       0.065237895    0.15339038    -0.058675236    1796         
    391000   1.0040899      784766.27      850376.52      5.7074123      5.5444086      5.5285898     -0.0036003684   0.25096248     0.029628595    1793         
    392000   1.0053697      784544.38      850238.26      5.5227718      5.6085712      5.6972945     -0.10067275     0.060898729    0.011934101    1791         
    393000   0.99202716     784648.86      849470.89      5.7528832      5.6454305      5.5666113     -0.07646216     0.065932416    0.055360917    1792         
    394000   1.0028212      784271.28      849798.63      5.6085102      5.4396188      5.419167       0.032858405   -0.16470553    -0.09020934     1790         
    395000   1.0089193      784686.85      850612.67      5.5774955      5.6911638      5.6266267     -0.08065341     0.044129746   -0.0034320635   1791         
    396000   0.99939774     784256.17      849559.81      5.6635598      5.5367007      5.4759776      0.20878083     0.058547773    0.05690679     1785         
    397000   1.0043391      784399.24      850025.77      5.5941903      5.4095237      5.5593137     -0.11602917     0.02196692     0.11266026     1796         
    398000   0.99730703     784616.53      849783.57      5.4726609      5.4000985      5.376773       0.013699428   -0.0034164609  -0.076017011    1793         
    399000   0.99616751     784661.26      849753.83      5.4706458      5.5030219      5.4128883     -0.10736211    -0.080949564   -0.055136774    1789         
    400000   0.99817582     784562.37      849786.17      5.660063       5.4385127      5.3617263     -0.0017246549  -0.037740956   -0.04826454     1785         
    401000   1.0038849      784622.62      850219.47      5.6114579      5.4365765      5.5881062      0.0027147231   0.080347216   -0.052870574    1790         
    402000   0.99861854     784632.32      849885.05      5.5451821      5.4368931      5.6605594     -0.15607325     0.034630951    0.047743696    1793         
    403000   0.99705622     784570.6       849721.25      5.6412128      5.5881352      5.6274244      0.033615973    0.042594082    0.070580865    1791         
    404000   1.0064335      784744.93      850508.32      5.4435642      5.64975        5.7831421     -0.12014328    -0.096714952   -0.04566797     1790         
    405000   1.0055654      784568.59      850275.25      5.4254764      5.650336       5.6771477     -0.084717144    0.065127938   -0.19171208     1785         
    406000   1.0004889      784364.87      849739.81      5.5357873      5.5645982      5.5603377     -0.2010723     -0.12266701    -0.060969054    1776         
    407000   1.0000244      784898.88      850243.48      5.6442589      5.5304362      5.5155498     -0.12189065    -0.054573259   -0.0014810719   1770         
    408000   0.99606045     784733.2       849818.78      5.3619879      5.2767555      5.414322      -0.084603774   -0.045541155    0.077252497    1767         
    409000   0.99856707     785016.39      850265.75      5.6580907      5.6132221      5.5317952     -0.039777326   -0.022043273    0.0023029699   1767         
    410000   1.0017842      784479.49      849939.07      5.414965       5.4961948      5.5008762      0.072142846   -0.0063038099   0.021840849    1768         
    411000   0.99972918     784679.51      850004.81      5.6420459      5.5575456      5.5473881     -0.14515808    -0.0012745313   0.099238846    1767         
    412000   1.0008737      784586.95      849987.04      5.4526248      5.5850446      5.5800296      0.05708453    -0.14885075     0.020483418    1765         
    413000   1.0076442      784706.99      850549.48      5.6208923      5.7344932      5.7581031     -0.076322899    0.027777398   -0.15561307     1764         
    414000   1.0000316      784615.92      849960.99      5.4459148      5.7162624      5.6771575      0.16828131     0.11092957    -0.036279127    1767         
    415000   0.99090243     784612.93      849361.47      5.5233807      5.4970221      5.5634568     -0.026021307    0.12022571    -0.080864683    1771         
    416000   1.000779       784570.54      849964.44      5.4362609      5.7656245      5.3781545      0.009360606    0.025452534   -0.11755828     1769         
    417000   1.0076269      784395.21      850236.58      5.5507283      5.691305       5.5127026      0.19509666     0.067138777    0.006710519    1765         
    418000   1.0082981      785022.8       850908.02      5.3625338      5.3910962      5.4849627      0.087349528    0.1511738     -0.0055253768   1769         
    419000   1.0022451      784890.45      850380.15      5.6512876      5.5374008      5.6866052      0.055433718   -0.0040736334  -0.17631582     1763         
    420000   0.99435308     784549.39      849523.4       5.6371252      5.5059887      5.5734209      0.011053625    0.01613597    -0.0092620741   1757         
    421000   1.0011035      784847.58      850262.68      5.5600051      5.4587345      5.748376      -0.050019433    0.15545871     0.027897768    1758         
    422000   1.0006871      784829.43      850217.33      5.5000533      5.7897589      5.5806267      0.06568496    -0.11723233    -0.063753877    1753         
    423000   1.0001574      784846.5       850199.78      5.6888386      5.564308       5.4527507     -0.0055794167   0.039303078    0.034212742    1753         
    424000   0.99882086     784552.93      849818.88      5.5668195      5.6115528      5.4861049     -0.1026838     -0.10509805    -0.07014635     1754         
    425000   1.0008067      784264.16      849659.87      5.5099432      5.5037741      5.4694043      0.051423334    0.01629877    -0.05136261     1755         
    426000   1.0037432      784718.25      850305.84      5.5555745      5.4952572      5.6326366      0.103332      -0.080299498   -0.11912161     1749         
    427000   1.0013044      784301.55      849729.78      5.5558737      5.5330619      5.5721063      0.13430914    -0.086183295   -0.0058518055   1745         
    428000   1.0005348      784831.56      850209.5       5.3519217      5.5559331      5.6956786     -0.13587019     0.15601535    -0.019567636    1753         
    429000   0.99871434     784477.69      849736.68      5.3188084      5.5214783      5.5284545      0.11965903    -0.080745897   -0.017591732    1749         
    430000   1.0067433      784719.57      850503.19      5.7253039      5.618745       5.2281275     -0.048339638   -0.22524076    -0.029789826    1751         
    431000   0.99541849     784983.4       850027.03      5.4968155      5.5947048      5.7605559     -0.083876175   -0.0037023275   0.074954667    1750         
    432000   0.99980321     784605.08      849935.22      5.6264567      5.7645955      5.389831       0.16161167     0.040568248   -0.031306914    1747         
    433000   1.0042812      784775.89      850398.64      5.8294076      5.5504808      5.4787549      0.0010363747   0.015758289    0.085572189    1750         
    434000   1.0013248      784700.6       850130.16      5.5376896      5.5427171      5.4791026      0.15815649     0.096350535   -0.14732647     1754         
    435000   1.0064073      784611.45      850373.12      5.4235196      5.4830629      5.5012551      0.03343045     0.04590001     0.17683173     1760         
    436000   1.0046816      784493.97      850142.88      5.7357425      5.4563648      5.6292713      0.11264561    -0.16187514    -0.031577442    1766         
    437000   1.0030473      784301.82      849843.94      5.7467307      5.2126651      5.7746041      0.126242       0.039737531   -0.0075802185   1769         
    438000   1.0015278      784491.27      849934.11      5.5534969      5.6943234      5.6832948     -0.002128637    0.078472005    0.060108236    1775         
    439000   1.0072572      784708.91      850526.12      5.5845762      5.6258643      5.6105851     -0.034185391    0.10751229     0.12428307     1771         
    440000   1.0051572      784318.54      849998.53      5.3946277      5.5995311      5.5404095     -0.023398767    0.17845709     0.0062730952   1773         
    441000   0.99800945     784401.28      849614.21      5.4486219      5.5557504      5.7280965     -0.016239509    0.12901912    -0.12279155     1759         
    442000   0.99992283     784474.23      849812.18      5.5746454      5.739154       5.4660556      0.075301107   -0.055406027    0.027624499    1764         
    443000   0.99237478     785145.23      849989.97      5.4627885      5.6170794      5.3233116      0.091922156   -0.063371935    0.065442859    1759         
    444000   0.99683547     784759.25      849895.47      5.2123209      5.23839        5.4363802      0.020603196   -0.21974274     0.055105421    1759         
    445000   0.99871785     784567.79      849827.01      5.8379356      5.4262434      5.6499439     -0.18713048    -0.10114071     0.069376016    1761         
    446000   0.99452747     784682.08      849667.48      5.5661434      5.5086097      5.5006173     -0.00065838102  0.048493875    0.039766009    1758         
    447000   1.004603       785150.58      850794.36      5.6225379      5.831196       5.6249059     -0.11320434    -0.12782507    -0.1425619      1763         
    448000   1.0051221      784384.1       850061.79      5.7412455      5.8414829      5.4449672      0.014473882   -0.20085357     0.068607563    1771         
    449000   1.0023336      784290.51      849785.99      5.480733       5.5171682      5.4615008      0.0059095613  -0.045718549    0.091917051    1776         
    450000   1.003611       784578.11      850157.06      5.4767876      5.7255418      5.5481213      0.028766193   -0.0026820894   0.0078008238   1777         
    451000   1.0039511      784681.83      850283.01      5.592006       5.755507       5.5465301     -0.15529202    -0.18541329     0.11893329     1775         
    452000   1.003231       784763.8       850317.93      5.7019683      5.5968896      5.6330662      0.085767752   -0.084511053   -0.085236701    1779         
    453000   1.0004597      784559.18      849932.21      5.595521       5.4887473      5.4810683      0.12874434     0.16480015    -0.09085359     1784         
    454000   1.0004145      784155.96      849526.05      5.8856376      5.476204       5.3931663      0.24220996    -0.031856336    0.0076680866   1786         
    455000   1.0034369      784530.78      850098.36      5.5751896      5.5044748      5.5642797     -0.098363136   -0.0081304145  -0.0064607528   1784         
    456000   0.99994699     785013.59      850353.13      5.7471052      5.510697       5.5875738     -0.033466711    0.071459019    0.061391514    1792         
    457000   1.0004083      784354.52      849724.2       5.6137702      5.6735881      5.580453      -0.14997791     0.040666461    0.050049367    1790         
    458000   0.99770345     784470.18      849663.12      5.6400159      5.4287136      5.3960877     -0.010124424    0.07910301     0.083420796    1785         
    459000   1.0080008      784448.17      850313.96      5.6195348      5.5327719      5.4699996     -0.030503278   -0.12459735     0.098940954    1791         
    460000   0.99955728     784506.29      849820.36      5.6813465      5.5696326      5.5981515      0.062046779    0.011166723   -0.081597851    1790         
    461000   1.002105       784729.63      850210.18      5.9280859      5.3773338      5.5294112     -0.019922636   -0.064909883   -0.032058323    1785         
    462000   0.99829585     784800.66      850032.31      5.8205196      5.6058302      5.4709451      0.21826605    -0.12466058     0.13276451     1789         
    463000   0.99832182     784291.49      849524.83      5.5771603      5.3983891      5.3926184      0.015883584   -0.037704423    0.037001267    1790         
    464000   0.99738934     784555.85      849728.27      5.6722414      5.4358506      5.5231837     -0.20985035    -0.0099920347  -0.048803347    1786         
    465000   1.0039773      784300.97      849903.86      5.5587321      5.5298516      5.4844176      0.021873955   -0.098541291    0.1251559      1784         
    466000   1.006876       784588.08      850380.38      5.6383664      5.4915628      5.5543387     -0.010415731   -0.0023256965   0.032230405    1786         
    467000   0.99723289     784485.8       849647.99      5.8224183      5.5181817      5.5198069     -0.035491126   -0.16517264     0.11228066     1789         
    468000   1.0043832      784445.53      850074.94      5.4769979      5.6037943      5.8062005     -0.20587504    -0.070471347   -0.13972577     1792         
    469000   1.0046122      784462.1       850106.47      5.5027331      5.7838046      5.6327606      0.0064365427  -0.041322385    0.11376385     1798         
    470000   1.0006904      784498.09      849886.2       5.3086186      5.6986073      5.6351655      0.013970853   -0.035244788    0.084146463    1795         
    471000   0.99065511     784671.47      849403.85      5.5059363      5.5798676      5.4371871      0.06129326    -0.13769782    -0.056075096    1793         
    472000   0.99723261     784505.91      849668.08      5.6201837      5.665394       5.4590213      0.022151494   -0.038761428   -0.028447378    1785         
    473000   0.99890645     784596.06      849867.6       5.4762301      5.6150069      5.3836192      0.11882167     0.070619681    0.075286337    1785         
    474000   0.99810818     784494.02      849713.4       5.6004047      5.7956247      5.8663891     -0.014624321    0.094044796    0.030490173    1781         
    475000   1.0022651      784688.64      850179.65      5.6341831      5.7519023      5.4921595      0.082777271    0.031043257    0.010151287    1789         
    476000   0.99858394     784246.33      849496.8       5.6354464      5.6493318      5.496402      -0.067654413    0.030336186   -0.020339457    1784         
    477000   1.0036264      784154.18      849734.14      5.6701981      5.6341433      5.3852967      0.046977573   -0.11385351    -0.14023316     1788         
    478000   0.99959231     784374.73      849691.09      5.5060869      5.5469887      5.8295581     -0.068863994    0.058325344   -0.12540182     1787         
    479000   0.99691138     784637.66      849778.84      5.6399793      5.6908253      5.805969      -0.27424789    -0.21775344    -0.055631997    1782         
    480000   1.0026337      784744.08      850259.17      5.6327535      5.6961936      5.5787406     -0.091207253    0.043196948    0.1420582      1781         
    481000   0.99859749     784788.36      850039.72      5.3953267      5.6197464      5.6848344      0.066857677    0.083832657    0.0029616303   1781         
    482000   0.99491008     784045.11      849055.52      5.5282357      5.456746       5.4598405      0.19177518    -0.014693475    0.082825952    1790         
    483000   1.0049362      784193.32      849858.87      5.4712549      5.298969       5.4744727      0.1272359     -0.022298179    0.08548878     1786         
    484000   0.99583845     784273.52      849344.59      5.5164411      5.1737824      5.4495325      0.00076419335 -0.014393431    0.079974097    1781         
    485000   0.99674756     784494.39      849624.87      5.3804565      5.5726405      5.4977231      0.014097393   -0.11276321     0.010354977    1783         
    486000   1.0026103      784193.42      849706.99      5.4447663      5.4401166      5.4164962     -0.17816763    -0.052971624    0.17822997     1787         
    487000   1.0008205      784663.15      850059.77      5.6186097      5.5067001      5.6216158      0.012731514    0.24745862    -0.065548824    1795         
    488000   0.99433623     784843.88      849816.79      5.6222277      5.6506693      5.4244483     -0.017310365   -0.039142716   -0.15890021     1790         
    489000   0.99893105     784306.72      849579.87      5.6169618      5.4926268      5.4232829      0.085814408   -0.05623219     0.11294074     1791         
    490000   1.0011987      784630.25      850051.58      5.4595425      5.4758332      5.5577271     -0.032686494   -0.14332714    -0.088917484    1791         
    491000   0.99538513     784627.89      849669.34      5.6666028      5.5165859      5.4260535      0.064425788   -0.072511179   -0.017064726    1797         
    492000   1.0018049      784493.36      849954.3       5.6815759      5.4050422      5.8116334      0.10487339    -0.0033480894  -0.05956946     1787         
    493000   1.0063979      784436.67      850197.73      5.4044674      5.3350102      5.7861375      0.15667776     0.092255937   -0.096229225    1788         
    494000   1.0044399      784895.18      850528.3       5.6818875      5.4945997      5.4997219      0.028966257    0.0048004865   0.20547011     1790         
    495000   0.99166513     784342.95      849141.32      5.4028857      5.4638859      5.6594245     -0.014896689   -0.055491719    0.024700379    1794         
    496000   0.99791242     784655.85      849862.45      5.5359789      5.5217242      5.6859418      0.054503621    0.025744725   -0.038562438    1794         
    497000   0.99645436     784693.3       849804.62      5.5839404      5.4962592      5.6043364      0.078050409   -0.041972       0.036996977    1787         
    498000   0.99562871     784364.56      849421.93      5.7544816      5.4771743      5.4393225     -0.15965236     0.032141042    0.090707009    1785         
    499000   1.0024436      784649.89      850152.56      5.4786815      5.7575254      5.6630298      0.0018778316   0.054893957   -0.014285389    1781         
    500000   1.0087779      784771.43      850688         5.661629       5.4411574      5.5252698      0.11608275     0.080557965    0.10032181     1791         
    501000   1.0008831      784748.57      850149.27      5.5431235      5.4062469      5.7570868      0.081076701   -0.061216962    0.060206822    1795         
    502000   0.99897476     784605.25      849881.25      5.5907243      5.6605225      5.6696564     -0.10077751     0.10955897    -0.13862546     1795         
    503000   0.99848722     784638.07      849882.22      5.5439179      5.3826011      5.7105123     -0.13105099     0.12383808     0.063601883    1790         
    504000   0.99810909     784304.68      849524.12      5.4644957      5.4358519      5.4531418     -0.004907313    0.048198116   -0.19733229     1792         
    505000   0.99519797     784667.71      849696.93      5.3688696      5.6435568      5.4582945      0.025778268    0.050589264    0.049266436    1795         
    506000   1.0007764      784529.07      849922.81      5.7273956      5.6072947      5.5527803     -0.017684884   -0.063683857   -0.067131752    1794         
    507000   1.003943       784224.57      849825.21      5.5159296      5.7855572      5.2974923      0.032379972    0.0096760948  -0.06979038     1792         
    508000   1.0033957      784383.62      849948.5       5.5958672      5.6846471      5.6575969     -0.090185463   -0.10744596     0.053024858    1794         
    509000   0.99956947     784724.25      850039.12      5.8317291      5.63352        5.4469843      0.097391563   -0.01302588    -0.034009987    1795         
    510000   1.0014971      784738.56      850179.38      5.5227794      5.3930136      5.3699952      0.010130807   -0.24529202     0.02407041     1794         
    511000   0.99492879     784292.36      849304         5.5075727      5.3978197      5.3217137      0.038995636   -0.014437103    0.025903459    1791         
    512000   0.9939705      784665.92      849614.93      5.3558758      5.3904277      5.572872       0.039322724    0.1354062     -0.10514795     1791         
    513000   0.9950963      784780.28      849802.86      5.6311931      5.691431       5.5389624      0.10174942     0.010245832   -0.024891271    1791         
    514000   0.99597448     784779.21      849859.17      5.5610415      5.5700019      5.6792955      0.16639452     0.03342797    -0.014833285    1783         
    515000   0.99173409     784395.21      849198.09      5.6223478      5.4115127      5.9386287     -0.08948635     0.040850969   -0.0096234747   1783         
    516000   1.0029841      784160.89      849698.88      5.7606908      5.3428749      5.5446799      0.013729153   -0.054091841    0.045426492    1788         
    517000   0.99720889     784469.91      849630.53      5.6205941      5.5879732      5.5136529      0.022925821   -0.022156303    0.1122763      1788         
    518000   0.99784945     784562.46      849764.93      5.7377607      5.6264165      5.6702216     -0.030316029    0.090891025   -0.10170569     1784         
    519000   1.0073338      784666.02      850488.23      5.4881574      5.4479101      5.5330125      0.061402121   -0.020595026   -0.14437262     1783         
    520000   1.0050292      784796.12      850467.74      5.2428759      5.504944       5.5362063     -0.046626584   -0.093292618   -0.11689787     1771         
    521000   1.0049684      784485.17      850152.82      5.5641611      5.5539989      5.7794369     -0.1748207      0.11584683     0.065774577    1769         
    522000   1.0066484      784725.62      850503.05      5.5905785      5.5448842      5.5288117     -0.20174657    -0.081059277   -0.045096729    1772         
    523000   1.0004266      784310.28      849681.15      5.5248899      5.5281365      5.3682695     -0.095652845   -0.061654888    0.075190312    1773         
    524000   0.99419603     784759.08      849722.83      5.7343657      5.5404542      5.5621383      0.029420261   -0.056704317   -0.038517928    1775         
    525000   1.0002245      784840.03      850197.7       5.6622978      5.6464708      5.7934893      0.021167634    0.16762347    -0.098743886    1776         
    526000   1.0003148      784657.14      850020.71      5.538217       5.650015       5.5131501      0.015556874    0.037633792   -0.050692184    1776         
    527000   1.0002471      784522.04      849881.18      5.7089461      5.5832432      5.4770848     -0.0398793      0.1013942     -0.049542216    1781         
    528000   0.99969067     784926.05      850248.84      5.7541463      5.5991097      5.5538184     -0.048311468   -0.054208157    0.05939141     1780         
    529000   0.99117204     784460.92      849227.08      5.7036769      5.5302017      5.4509561     -0.069652484    0.14588201    -0.02781059     1779         
    530000   0.99970813     784654.05      849977.98      5.6678336      5.4909937      5.5493197      0.022477747   -0.064374452    0.2025742      1777         
    531000   0.99561197     784881.53      849937.8       5.7337798      5.5531696      5.6026081     -0.069203174   -0.14161256     0.069709443    1772         
    532000   1.0016006      785029.11      850476.7       5.7701723      5.7810871      5.6817599      0.011231883    0.17219772    -0.15571393     1776         
    533000   1.0052215      784552.55      850236.74      5.6362924      5.5269147      5.8464011      0.046307947    0.056849917    0.07804015     1770         
    534000   0.99643825     784697.57      849807.83      5.6149438      5.6428023      5.446873      -0.015952606   -0.086270423    0.11360735     1769         
    535000   0.99952584     784669.05      849981.06      5.7812512      5.6649233      5.6190023      0.018963785    0.067995552    0.0045993622   1772         
    536000   1.0019901      784402.52      849875.56      5.5236196      5.7950062      5.8105887      0.080247874   -0.048830314    0.10761628     1776         
    537000   0.99795806     784373.07      849582.64      5.8262733      5.685696       5.4840659      0.062699037    0.20024484    -0.16701453     1783         
    538000   1.0091861      784731.87      850675.12      5.638775       5.6540755      5.4578215      0.021430169   -0.045532222    0.084140267    1780         
    539000   1.0022768      784685.48      850177.25      5.6136163      5.4997029      5.6989688     -0.16328691     0.090790888    0.10210853     1782         
    540000   0.99799654     784428.12      849640.21      5.3166505      5.5075497      5.5086404      0.21814784     0.067608434    0.11741403     1782         
    541000   1.0030071      784574.85      850114.34      5.2365901      5.601767       5.6475065     -0.12962266     0.074818579   -0.0046262738   1783         
    542000   0.99986174     784853.78      850187.75      5.551725       5.4537087      5.3699697      0.20193831     0.25622196     0.10664013     1776         
    543000   0.99972181     784639.63      849964.46      5.5501922      5.424969       5.6806681      0.085378856   -0.042579494    0.11359142     1773         
    544000   1.0014552      784647.57      850085.66      5.7271933      5.7041789      5.5654452      0.18730102    -0.10507829     0.0038509355   1776         
    545000   1.0077073      784599.29      850445.91      5.6012554      5.6222592      5.3056415      0.13135868    -0.17727451    -0.19354746     1779         
    546000   0.99986803     784386.42      849720.79      5.5393725      5.5398615      5.2293313     -0.072563285   -0.12001873    -0.028735949    1782         
    547000   1.0011072      784702.83      850118.18      5.4063261      5.4617677      5.5264927     -0.13664462    -0.07063657     0.10553626     1780         
    548000   0.99814234     784355.07      849576.69      5.6395755      5.5079243      5.6144212      0.03036406     0.041682113    0.068169258    1775         
    549000   1.0063166      784096.64      849852.39      5.6382321      5.5019155      5.7424816      0.01379335    -0.1339992      0.10256097     1774         
    550000   0.99517654     784514.5       849542.32      5.6698765      5.4733759      5.4528295      0.14361158    -0.030320538    0.082256312    1769         
    551000   0.99747317     784388.87      849566.76      5.557236       5.6425364      5.396236       0.049706578    0.045913681    0.11389692     1774         
    552000   1.0034278      784531.89      850098.87      5.4578523      5.3251493      5.7027802      0.031629873    0.01457508    -0.0096595813   1772         
    553000   1.0013306      784450.46      849880.41      5.8512285      5.5465901      5.7825799      0.17927005    -0.016083642   -0.019054982    1772         
    554000   0.99497985     784597.92      849612.88      5.5496447      5.6088365      5.8511026     -0.041694222   -0.01965667     0.0098804911   1770         
    555000   1.0080482      784482.14      850351.04      5.6061848      5.6767338      5.696883       0.057760563    0.1221568      0.11670104     1771         
    556000   0.99845149     784839.11      850080.93      5.57884        5.5956048      5.6630932      0.086178382    0.034869217    0.066128242    1769         
    557000   0.99929227     784514.65      849811.4       5.38193        5.7855746      5.5265599     -0.088849004    0.18654325    -0.12957349     1770         
    558000   0.99923736     784776.46      850069.62      5.7264067      5.2919494      5.6241164     -0.039610587    0.11295805     0.066311102    1772         
    559000   0.99495777     784553.89      849567.42      5.5849174      5.540894       5.3727152      0.032019597    0.012974601    0.14868408     1766         
    560000   1.0007407      784855.38      850246.78      5.652915       5.5920675      5.5627114     -0.10527123     0.073489167   -0.010126573    1772         
    561000   1.0014686      784673.45      850112.41      5.550393       5.6325182      5.5231163      0.025901379    0.0039299823   0.0070841006   1777         
    562000   0.99898043     784697.23      849973.61      5.4065072      5.2244912      5.5791518     -0.01816511     0.10955973     0.016344081    1775         
    563000   0.99432656     785082.74      850055.02      5.6893862      5.6886634      5.5170663     -0.18589726    -0.037467241    0.037887461    1771         
    564000   0.99252239     784713.27      849567.66      5.5840831      5.5275233      5.4250535      0.17238885     0.049914464   -0.075040208    1768         
    565000   1.002835       784567.94      850096.19      5.7572624      5.5856824      5.4393196     -0.05969245     0.15149279     0.025883766    1761         
    566000   1.0039163      784550.8       850149.7       5.4190344      5.467842       5.6399932     -0.050646351    0.15485864     0.041116171    1764         
    567000   0.99430224     784693.14      849663.83      5.6877797      5.5479762      5.4328944      0.092210419    0.084733219   -0.14779622     1767         
    568000   0.99745897     784821.08      849998.04      5.2983522      5.8383742      5.6030418      0.05525197     0.0086134783  -0.24832538     1768         
    569000   1.0002014      784731.65      850087.81      5.4618987      5.5425287      5.8904387     -0.0072965389  -0.052499043    0.087312027    1772         
    570000   0.99968657     784747.16      850069.68      5.6862455      5.5459386      5.3094131      0.041244625    0.0075261496   0.017142396    1776         
    571000   0.99873784     785030.38      850290.91      5.8036469      5.6223384      5.4946184      0.12021247    -0.052662546   -0.10800988     1777         
    572000   1.0100929      784730.15      850732.65      5.6027246      5.6458587      5.6008161      0.028554668    0.11397114    -0.094546504    1775         
    573000   1.0066266      784470.27      850246.27      5.4147959      5.6072068      5.6087262      0.061869692    0.044173942    0.11959443     1777         
    574000   0.99981492     784353.47      849684.37      5.6448631      5.4798806      6.0717841      0.0082680768  -0.098207153   -0.02046801     1782         
    575000   1.005563       784210.64      849917.14      5.5031351      5.7429037      5.7170743     -0.073982522   -0.07975914    -0.11927125     1776         
    576000   1.0013614      784420.65      849852.61      5.3450943      5.528995       5.5145726      0.10055035     0.15626442    -0.02775559     1783         
    577000   1.0023795      784684.57      850183.05      5.6352774      5.6040052      5.5582682      0.078260397    0.029558208    0.015070951    1777         
    578000   1.0077965      784442.7       850295.14      5.3612722      5.4908514      5.6668169      0.063334431    0.061431167    0.091685979    1783         
    579000   0.99789844     784513.07      849718.75      5.1118744      5.6215896      5.5351585     -0.060029341   -0.020089237   -0.094853322    1780         
    580000   0.99251985     784507.68      849361.91      5.4416881      5.6626143      5.6104823     -0.14301934     0.10524928     0.057802294    1784         
    581000   1.0033502      784717.88      850279.8       5.5626737      5.4606333      5.5775669     -0.15421153     0.001222595   -0.10204861     1783         
    582000   1.0029462      784721.22      850256.73      5.7275673      5.4226966      5.6478284     -0.079351532    0.013492944   -0.024295565    1787         
    583000   1.0036616      784267.89      849850.15      5.3932651      5.6784235      5.5297373     -0.047785643    0.084248644   -0.21370217     1795         
    584000   0.99761193     784192.4       849379.36      5.5356116      5.7702271      5.5258089      0.030803096   -0.044440041    0.064217092    1790         
    585000   1.0052101      784520.52      850203.97      5.8218811      5.6760471      5.6643923      0.017078947   -0.084818041    0.056968735    1791         
    586000   1.0041689      784356.91      849972.32      5.6156244      5.5207247      5.5903464      0.045375302   -0.093648277    0.033906816    1792         
    587000   0.99776365     784474.19      849671.06      5.5377457      5.7612654      5.549207      -0.055220119   -0.053664745    0.095158177    1795         
    588000   1.0040253      784983.98      850590         5.5300204      5.8023978      5.6096812     -0.052515402   -0.22818357     0.052660254    1786         
    589000   1.0032529      784571.86      850127.41      5.4408744      5.6535714      5.4319096     -0.035457986    0.030561767   -0.094883143    1785         
    590000   0.99900792     784304.2       849582.37      5.5863892      5.4178392      5.488057      -0.069780072   -0.080568617    0.065259433    1786         
    591000   0.99715614     784840.34      849997.51      5.3670903      5.5212853      5.3833379     -0.005892354   -0.04248254     0.020252866    1781         
    592000   1.0029893      784254.76      849793.09      5.5970559      5.4967796      5.6412859      0.051487578   -0.081880528    0.048950821    1786         
    593000   0.99625619     784557.96      849656.33      5.6555624      5.6533633      5.6093589      0.016802869    0.030983092    0.034822139    1790         
    594000   1.0033466      784406.11      849967.79      5.6004174      5.399548       5.4129357     -0.069051122   -0.068998036   -0.025735609    1785         
    595000   0.9977925      784841.26      850040.01      5.5094434      5.6800996      5.5704482      0.056440728   -0.097587155   -0.097804884    1784         
    596000   1.006319       784339.53      850095.43      5.6349858      5.6416784      5.7084381      0.036068986   -0.024724371   -0.046164138    1785         
    597000   1.0030421      784446.67      849988.45      5.5655084      5.4525706      5.3321152     -0.017126037    0.057439353    0.10604419     1778         
    598000   0.99994776     785003.94      850343.52      5.497222       5.481581       5.6898972     -0.023376786   -0.10801097    -0.12522293     1774         
    599000   1.010846       784976.67      851028.38      5.4391612      5.591023       5.657934      -0.065525743   -0.04315117     0.023203657    1770         
    600000   1.0045865      784443.33      850086.03      5.6236955      5.5549106      5.6321064      0.0074102843  -0.11194047    -0.010227922    1778         
    601000   1.0000534      784912.1       850258.58      5.6275233      5.5290246      5.683141       0.047963784    0.17768545     0.013148787    1779         
    602000   0.99784726     784643.72      849846.05      5.6422441      5.5312145      5.6181817     -0.12669733     0.050996738    0.0042868024   1779         
    603000   1.0059123      784864.4       850593.73      5.6240423      5.5098312      5.7059473      0.049851135    0.10240956    -0.013087053    1779         
    604000   0.99264502     784846.4       849708.8       5.4597517      5.4378971      5.6976814     -0.053639879    0.10308831    -0.14299796     1776         
    605000   0.99723115     784415.61      849577.68      5.49745        5.5885514      5.5521591      0.04166386     0.091099423   -0.040123901    1775         
    606000   1.005359       784489.49      850182.67      5.5112343      5.5284333      5.4104909      0.14172439     0.088610202    0.0033433705   1775         
    607000   1.0031509      784406.32      849955.21      5.7605216      5.7753463      5.6058646      0.0096470592  -0.11267845    -0.15609209     1779         
    608000   1.0007521      784515.48      849907.62      5.7212515      5.8487224      5.5210028      0.10712562     0.017790045    0.085150459    1781         
    609000   1.002327       784577.36      850072.41      5.4627824      5.4438964      5.5858198      0.022056124    0.09388912    -0.065955229    1781         
    610000   1.0063875      784301.44      850061.82      5.380399       5.4017578      5.5425189      0.015291134    0.00077532984 -0.014046669    1783         
    611000   1.0017636      784727.82      850186.06      5.5400264      5.7221639      5.4647434     -0.036563502    0.0026535335  -0.050641685    1776         
    612000   0.99227735     784758.06      849596.44      5.4043219      5.7462137      5.6204933      0.020701931    0.16008114     0.10328167     1772         
    613000   0.98935695     784913.51      849561.06      5.5471163      5.7261449      5.6646873      0.15652674     0.097179983   -0.015889602    1773         
    614000   1.0063531      784553.86      850311.99      5.3288141      5.4864041      5.3925769      0.10688635     0.091583564    0.047929597    1778         
    615000   1.0028835      784654.67      850186.08      5.67125        5.5225087      5.5147144     -0.027887642    0.086245421    0.061158722    1779         
    616000   0.9990567      784356.69      849638.06      5.6042038      5.6675417      5.6961672     -0.044646085   -0.045123469   -0.056949347    1780         
    617000   1.000758       784671.57      850064.1       5.4787614      5.3444251      5.4838279     -0.0298249     -0.10440786     0.13812448     1776         
    618000   1.002191       784531.78      850017.95      5.5892131      5.4003599      5.6552292      0.17031716    -0.094127475   -0.042947872    1781         
    619000   1.0037737      784732.74      850322.33      5.460566       5.7201614      5.502986       0.016481961    0.029370986    0.092701308    1782         
    620000   0.99624113     784615.11      849712.5       5.7846232      5.6495243      5.5860155     -0.00091994102 -0.10929253    -0.025760906    1781         
    621000   0.99458547     784576.06      849565.26      5.6460677      5.6119685      5.7529746      0.040229084   -0.1371966      0.14170209     1781         
    622000   1.0067416      784626.25      850409.77      5.3724006      5.4780618      5.7370119      0.14516789     0.064772748   -0.018036581    1781         
    623000   1.0009054      784471.84      849874.01      5.5200247      5.6684167      5.4438072      0.048589311    0.11525554     0.10887018     1781         
    624000   1.0024394      784232.73      849735.13      5.5165812      5.4656966      5.4471647     -0.13969261     0.31684626    -0.23177516     1783         
    625000   0.99754451     784690.18      849872.73      5.5969415      5.6335341      5.5382584     -0.0078772105  -0.023885518   -0.074052835    1785         
    626000   1.0006054      784514.56      849897.11      5.4860393      5.4021836      5.4166819     -0.062390425    0.0092395167   0.16567497     1784         
    627000   1.0059462      784585.4       850316.94      5.54589        5.6528038      5.4765099     -0.06678767     0.28328045    -0.089155439    1781         
    628000   0.99749291     784865.01      850044.19      5.6550645      5.6542435      5.5546132      0.027491475    0.22790972    -0.016819995    1782         
    629000   0.99418361     784434.42      849397.35      5.4113819      5.5768477      5.5931702      0.10628782     0.057907235   -0.052444034    1774         
    630000   0.9963889      784778.57      849885.61      5.4485287      5.3016115      5.55935        0.18706998    -0.083411209   -0.013240333    1773         
    631000   0.99687832     784911.01      850050.03      5.6853416      5.6388354      5.5748205      0.11907634     0.059261423    0.027483018    1776         
    632000   0.99796714     784718.66      849928.83      5.6398456      5.7551162      5.4516959      0.11134231    -0.032338655    0.057986737    1772         
    633000   0.99654547     784419.75      849537.02      5.4934409      5.563458       5.4287545      0.013995285    0.11830419    -0.049216836    1771         
    634000   0.9992802      784916.43      850212.39      5.6046359      5.664508       5.6158866      0.061769855    0.096023414   -0.026083386    1769         
    635000   0.99626527     784210.86      849309.82      5.442858       5.6257146      5.4108736      0.119732       0.015163665    0.20211162     1771         
    636000   1.0021518      784677.18      850160.78      5.3979817      5.7323768      5.6908381     -0.01410866    -0.067784385   -0.13467295     1768         
    637000   1.0011549      784501.5       849919.97      5.5683586      5.8095411      5.5566638     -0.06564971     0.024828743   -0.15891893     1767         
    638000   0.9958519      784708.58      849780.53      5.8204405      5.7532224      5.4299802     -0.099921626    0.064521029   -0.096084199    1770         
    639000   1.0020896      784505.24      849984.78      5.589371       5.7114701      5.500583       0.050738489    0.038407556   -0.03043993     1773         
    640000   0.99917806     784600.35      849889.64      5.5168992      5.4328733      5.4613139      0.011711332   -0.088574195   -0.0057092322   1775         
    641000   1.0004883      784569.67      849944.57      5.4001494      5.4844733      5.6608424      0.081015011    0.099930026   -0.007791558    1780         
    642000   1.0066992      785148.89      850929.64      5.2650758      5.8666479      5.670304      -0.081411136    0.0050826491  -0.071356563    1781         
    643000   0.99992551     784508.88      849847.01      5.5305341      5.6788359      5.4384105      0.016425277    0.19732162     0.24176135     1781         
    644000   0.99526653     785127.24      850160.94      5.4837629      5.7315216      5.6341951      0.011122959   -0.018123329   -0.064580732    1776         
    645000   1.0000636      784569.43      849916.59      5.6472175      5.5254913      5.4709476     -0.040172445   -0.050311392    0.00099735883  1781         
    646000   0.99894605     784483.29      849757.42      5.711918       5.6918785      5.5712212      0.045918487    0.0081849842  -0.079300112    1782         
    647000   0.99288897     784445.12      849323.46      5.6606446      5.5118114      5.4853785      0.14211922    -0.0062420702   0.031734967    1789         
    648000   1.0004898      784755.78      850130.79      5.7560383      5.3113662      5.6097589      0.21709116    -0.0063409494   0.014218377    1790         
    649000   1.0047792      784828.41      850483.7       5.4254705      5.4956065      5.5954413     -0.015595596   -0.060628443    0.026958957    1785         
    650000   0.99676413     784715.4       849846.96      5.6167356      5.5151664      5.7711726     -0.075541826   -0.078061299    0.18869744     1788         
    651000   0.9986547      784226.28      849481.37      5.5428738      5.5658646      5.5524667     -0.17092923    -0.14934635    -0.036280421    1790         
    652000   0.99735531     784190.08      849360.27      5.563631       5.7901964      5.5961293     -0.13222622     0.054788591   -0.039258575    1793         
    653000   0.99572604     785006.24      850069.97      5.747146       5.5738808      5.4755192     -0.12165825    -0.03609309     0.15804671     1791         
    654000   1.0048946      784129.63      849792.46      5.5604324      5.6360518      5.5629665      0.24915825     0.092871602   -0.071087157    1791         
    655000   1.0035763      784578.64      850155.33      5.4396796      5.7232388      5.7482338      0.031990627   -0.044108969    0.001833269    1791         
    656000   0.99991411     784715.76      850053.15      5.7711588      5.5616501      5.5752053     -0.12771711     0.15192348    -0.031395351    1791         
    657000   1.001513       784626.07      850067.93      5.4602765      5.5975673      5.5100019     -0.13391031     0.010579382    0.1598577      1788         
    658000   1.0025753      784612.97      850124.25      5.4366854      5.6082365      5.7546508      0.017886521    0.010075026    0.013268475    1782         
    659000   0.99808913     784535.75      849753.89      5.6373636      5.5223178      5.710773      -0.088411457    0.0083628235   0.051127197    1780         
    660000   1.0012542      784499.41      849924.36      5.6583663      5.7028748      5.6039113      0.195531       0.038175658   -0.051016515    1780         
    661000   0.99450461     784250.59      849234.5       5.5819578      5.3114447      5.5258279      0.014129859    0.038265119   -0.06567745     1780         
    662000   1.00179        784710.83      850170.8       5.5747436      5.3774735      5.5488532     -0.13233425     0.037301429   -0.10441318     1776         
    663000   0.99935603     784733.57      850034.5       5.7878007      5.7460626      5.6205593     -0.07079799     0.092221193   -0.011160437    1775         
    664000   0.99844729     784555.33      849796.87      5.6495405      5.4917674      5.5049641     -0.085599005    0.090635598   -0.050956888    1781         
    665000   0.99777945     784685.37      849883.27      5.692377       5.4790694      5.4624412     -0.058193702    0.014076094   -0.087519091    1786         
    666000   0.9862741      784643.76      849089.86      5.5200976      5.4782028      5.57694        0.079549642    0.12789858     0.070253322    1780         
    667000   1.0033084      784785.19      850344.38      5.4518299      5.6717496      5.4077598     -0.10731328     0.043524808   -0.047421409    1781         
    668000   0.99838249     784442.31      849679.62      5.5600937      5.4205954      5.4325706     -0.1073653      0.061733506    0.044770535    1777         
    669000   0.99730276     784323.52      849490.28      5.5472639      5.5593004      5.6810309      0.053630578   -0.15967118    -0.052247382    1780         
    670000   1.0003511      784180.87      849546.81      5.5969738      5.5650371      5.4689124     -0.040906558   -0.010324164   -0.19275856     1783         
    671000   0.99713276     784645.43      849801.08      5.5152415      5.4952759      5.5415899     -0.03934221    -0.14222301    -0.1132153      1783         
    672000   0.99772829     784611.84      849806.4       5.3171335      5.6096782      5.6844528      0.10678849     0.02142528     0.013828948    1783         
    673000   1.0025228      784408.02      849915.87      5.8056998      5.4769232      5.7225287      0.12420736     0.05619207    -0.071334538    1780         
    674000   0.99661501     784333.57      849455.39      5.6000645      5.3633881      5.8668509      0.087010499   -0.17370232     0.064249462    1784         
    675000   1.0104215      784909.05      850933.02      5.5541254      5.6011178      5.6375169      0.025316441    0.1606476      0.081259978    1786         
    676000   0.9980933      784705.62      849924.03      5.7825049      5.5074916      5.7370051     -0.11709583     0.0017814865   0.030557505    1784         
    677000   1.0036511      784370.51      849952.09      5.5545304      5.6056986      5.4982041      0.091534388   -0.016499815    0.0062161617   1783         
    678000   1.0092998      784793.02      850743.7       5.6678498      5.7797502      5.5299792      0.058214271    0.069131214    0.033949603    1789         
    679000   1.0033789      784864.14      850427.92      5.7022508      5.5300298      5.5226218      0.070194435   -0.061381854    0.00091111274  1786         
    680000   1.0026928      784386.8       849905.76      5.8397643      5.3182796      5.5401969     -0.015139654    0.22003535     0.095696283    1783         
    681000   1.0026557      784592.74      850109.27      5.5429078      5.4339532      5.627785       0.11172019     0.063399271    0.054857084    1777         
    682000   1.000765       784743.57      850136.56      5.4286146      5.2657056      5.3967281      0.019077342   -0.015345652   -0.082831821    1783         
    683000   0.99684779     784335.8       849472.83      5.6435864      5.5652913      5.4467073      0.087038394    0.0083479339   0.042376246    1782         
    684000   0.99600641     784472.31      849554.36      5.5260513      5.3714946      5.557114      -0.088154965   -0.089481943   -0.095654909    1775         
    685000   1.0027663      784743.8       850267.56      5.4897176      5.5709081      5.6753688      0.044422671    0.11393076     0.11322678     1777         
    686000   0.99943593     784633.21      849939.35      5.5236087      5.6558518      5.5241572      0.23054536    -0.0089746098   0.10115957     1777         
    687000   0.99915527     785032.97      850320.77      5.4411828      5.5634442      5.6359561     -0.017252615    0.042227609    0.070217592    1775         
    688000   1.0059446      785042.66      850774.1       5.5797758      5.6854343      5.6032247      0.070849217    0.042570897   -0.066145073    1774         
    689000   1.0024621      784297.14      849801.02      5.5057199      5.9537287      5.7735383      0.043373772   -0.049920568   -0.17824081     1775         
    690000   1.0085263      784749.49      850649.62      5.264901       5.310758       5.5307202      0.07046691    -0.070692966    0.0045286502   1772         
    691000   0.99774853     784755.57      849951.45      5.3142745      5.4670443      5.3713769     -0.091404452    0.0081442074  -0.010118881    1780         
    692000   1.001009       784048.04      849456.96      5.6891097      5.5293124      5.4660235     -0.1063239      0.0252565     -0.053139431    1785         
    693000   0.99859242     784167.13      849418.15      5.5768578      5.6195873      5.5272902     -0.17609515    -0.13499953     0.083049193    1783         
    694000   0.99997078     784868.03      850209.12      5.4459854      5.4550624      5.5122927      0.13797379     0.033989499   -0.00456959     1791         
    695000   0.99804404     784918.12      850133.31      5.434859       5.5597271      5.214097       0.099761303   -0.034905702   -0.070828633    1787         
    696000   1.0025168      785027.81      850535.26      5.4980858      5.6054677      5.4545106     -0.050870989    0.028319411    0.034074223    1787         
    697000   1.0065194      784991.52      850760.52      5.3481947      5.7642946      5.246166       0.055364768   -0.0035359732   0.059466854    1789         
    698000   0.99462175     784514.9       849506.47      5.3286766      5.6485459      5.3100608      0.12832348    -0.042884386    0.010661833    1789         
    699000   0.99423655     784471.57      849437.97      5.3689791      5.6938898      5.4056485     -0.054966884   -0.0010009567  -0.17665263     1787         
    700000   1.0016712      784533.61      849985.81      5.5731262      5.4461997      5.6033557     -0.049369075   -0.031862201    0.21537464     1786         
    701000   0.99470453     784328.37      849325.35      5.5643816      5.4581322      5.737228       0.033570988   -0.1045286      0.11256148     1784         
    702000   1.0050028      784533.35      850203.25      5.2175967      5.5904108      5.7050212     -0.02280176     0.099410713    0.055652952    1774         
    703000   0.9968481      784844.1       849981.15      5.6743166      5.4887931      5.5874402      0.040487503   -0.17705815    -0.096559497    1777         
    704000   0.99884978     784620.51      849888.35      5.3724485      5.3469122      5.7756357      0.14572418     0.13864394    -0.13479145     1776         
    705000   0.99871302     784424.62      849683.53      5.2793917      5.5935533      5.4977715      0.11551071     0.064316837    0.027389129    1772         
    706000   0.99398377     784673.05      849622.93      5.3150878      5.815622       5.6287438      0.010405481    0.171923       0.11303294     1778         
    707000   1.0018414      784636.91      850100.23      5.6579833      5.8877867      5.7558723      0.06745365    -0.075298171    0.045056857    1781         
    708000   1.00068        784166.44      849553.88      5.8122389      5.7041776      5.5798275      0.17341029     0.053758543    0.001765995    1785         
    709000   0.99617794     784494.6       849587.85      5.4987857      5.570035       5.4989672     -0.13328457     0.07429661     0.060352898    1791         
    710000   1.0004754      784395.84      849769.91      5.7468998      5.7046268      5.534517      -0.081391822    0.1034856      0.12927742     1790         
    711000   1.0036009      784156.7       849734.99      5.5446884      5.4233053      5.6029052     -0.00039159675  0.033592875    0.089077955    1793         
    712000   0.99585549     784706.2       849778.38      5.5231839      5.6498799      5.482533      -0.080583937   -0.010627963   -0.092104607    1791         
    713000   1.0010195      784466.84      849876.46      5.3655142      5.7336095      5.494416      -0.085860243    0.0068447687   0.057699634    1792         
    714000   0.99223276     784569.19      849404.65      5.5846552      5.7510434      5.4389645     -0.046801285   -0.20174346    -0.09152974     1788         
    715000   0.99316501     784220.01      849116.39      5.6951481      5.4079563      5.356677       0.022815267    0.1010489      0.1362548      1785         
    716000   1.0002927      784688.15      850050.27      5.5774434      5.47963        5.5729401     -0.057944822   -0.10925864    -0.076808947    1782         
    717000   1.0003694      784658.95      850026.09      5.6680826      5.4201023      5.3611823      0.055121156   -0.14696995     0.094349702    1779         
    718000   1.0032349      784610.64      850165.01      5.6772848      5.6771028      5.5784332     -0.047422253   -0.01866129    -0.15014937     1785         
    719000   1.0023014      784376.44      849869.81      5.6885545      5.6371991      5.6231186     -0.12095017    -0.064575573   -0.11025545     1782         
    720000   1.0029427      784668.58      850203.86      5.674657       5.5739644      5.8695674     -0.16816811    -0.12039563     0.066625695    1784         
    721000   1.0066185      784373.31      850148.78      5.733626       5.425471       5.5142506     -0.070245727   -0.087875393   -0.060191697    1784         
    722000   0.99760211     784181.44      849367.76      5.4279858      5.3681083      5.8359412     -0.043169723    0.096827003    0.074919767    1790         
    723000   1.0096848      784749.2       850725.04      5.7655554      5.5522445      5.462143      -0.025975747   -0.10024698    -0.13715996     1786         
    724000   1.0037872      784576.02      850166.49      5.4467078      5.3916545      5.7412345     -0.21099494     0.080444351   -0.1224754      1783         
    725000   0.99536866     784412.93      849453.3       5.6089401      5.5725724      5.7393852      0.047393032   -0.091226655   -0.32418076     1783         
    726000   0.99619333     784288.21      849382.47      5.5504639      5.5873175      5.6913272      0.17379865    -0.067740661   -0.010083151    1788         
    727000   0.99625075     784780.99      849879         5.4151255      5.4710197      5.5640212      0.034631218   -0.019161738   -0.078472076    1789         
    728000   0.99537896     784779.19      849820.23      5.5292879      5.802892       5.617891      -0.030132333   -0.050604121   -0.023449672    1777         
    729000   1.0011463      784834.65      850252.55      5.5348976      5.6434981      5.708057       0.053516039    0.14977569     0.022556672    1779         
    730000   1.0007711      784834.01      850227.4       5.2918829      5.5661077      5.6203662     -0.053496217   -0.063952196    0.037805302    1777         
    731000   1.0041019      784731.3       850342.33      5.4540367      5.5875855      5.5829715     -0.05560348    -0.11222109     0.11224648     1776         
    732000   0.99804756     784436.44      849651.86      5.4417589      5.4801752      5.5782068     -0.054621149   -0.13620438     0.049493804    1775         
    733000   0.99985291     784722.65      850056.04      5.6094109      5.5761231      5.5888895      0.20306161    -0.057784072    0.080072849    1778         
    734000   0.99934974     784254.5       849555.01      5.4646182      5.2979475      5.4642907     -0.074313168   -0.0018326766  -0.12607852     1778         
    735000   0.99095938     784453.47      849205.73      5.4228139      5.5469989      5.5412278      0.076328471   -0.070958968   -0.097134728    1784         
    736000   1.003385       784413.04      849977.22      5.6312272      5.7226862      5.3175109     -0.088956857   -0.09875838    -0.12110268     1789         
    737000   0.99991749     784535.42      849873.03      5.499838       5.2546521      5.5830972      0.036040115   -0.099743699   -0.075248718    1789         
    738000   1.0009965      784891.69      850299.8       5.4776148      5.7429228      5.6133633      0.11720867     0.059910066    0.035291562    1783         
    739000   1.0044063      784556.53      850187.45      5.601388       5.6960317      5.4510001      0.10078789    -0.054192523   -0.16367078     1781         
    740000   0.99729331     784744.61      849910.75      5.7195469      5.3220292      5.6845505     -0.25127359     0.090645672   -0.083723092    1786         
    741000   1.0028111      784606.61      850133.3       5.4283442      5.5200744      5.5810115     -0.04621357     0.048259952   -0.019685296    1787         
    742000   0.99772167     784588.48      849782.61      5.4464381      5.5996244      5.6053419      0.069782656   -0.012631143   -0.063453522    1791         
    743000   1.0011046      784585.53      850000.71      5.6588679      5.5343689      5.5461144     -0.10631697     0.078543382    0.081396227    1791         
    744000   0.99938734     784738.47      850041.44      5.5593597      5.4589551      5.6030997     -0.06125154     0.01550847     0.020811111    1788         
    745000   0.99845787     784788.65      850030.88      5.9605407      5.590091       5.4661955     -0.030266703   -0.034580323    0.10652817     1789         
    746000   0.99798934     784471.95      849683.56      5.5702702      5.6109771      5.5507028     -0.15157883     0.0033982043  -0.10153467     1788         
    747000   1.0052817      784451.42      850139.55      5.428831       5.2103719      5.6521373      0.003911792    0.049604983    0.025058497    1789         
    748000   0.99936478     784518.23      849819.73      5.5721699      5.6638466      5.4209496      0.01175164    -0.15141354    -0.097899193    1783         
    749000   1.0014137      784259.56      849694.93      5.4614655      5.53791        5.5785202     -0.036872103    0.17319708     0.050985987    1794         
    750000   0.99982187     784611.16      849942.52      5.5688465      5.3556843      5.5626302      0.00056884135  0.080796082   -0.030234912    1800         
    751000   1.0047455      784564.52      850217.61      5.4796726      5.5741348      5.3749154      0.083671668    0.14398755    -0.046097682    1800         
    752000   1.0017646      784542.34      850000.65      5.7380945      5.5667697      5.6927859     -0.053902252    0.045074579   -0.054733836    1797         
    753000   1.0027545      784439.87      849962.86      5.8434536      5.5363693      5.7901478      0.15487718    -0.075751131   -0.025627116    1790         
    754000   1.0074041      783963.77      849790.58      5.5297537      5.4655927      5.3489129      0.06924124     0.022460374   -0.063447375    1790         
    755000   0.99332742     784707.2       849614.19      5.5983104      5.5512782      5.6019945     -0.053587331   -0.12650198     0.1162117      1794         
    756000   1.0021916      784110.12      849596.33      5.2919804      5.6508414      5.2635395     -0.04357134    -0.0096017986   0.0042372264   1792         
    757000   1.0020296      784242.9       849718.52      5.2487978      5.3385726      5.5924154     -0.14689157     0.0013248455  -0.11116539     1794         
    758000   1.0090136      784383.86      850315.84      5.5946558      5.4491651      5.5235621      0.056975888   -0.034117049   -0.057921906    1797         
    759000   1.0004802      784371.79      849746.17      5.6181178      5.4553376      5.4013445      0.09558189     0.016934856   -0.24954116     1796         
    760000   0.99779132     784505.06      849703.74      5.6081798      5.6550988      5.4997238     -0.06958494     0.085217578    0.0302202      1795         
    761000   0.99639496     784609.05      849716.48      5.7810427      5.4813664      5.4801762     -0.1019246      0.11744623    -0.013550932    1795         
    762000   1.0038503      784788.83      850383.42      5.5255603      5.571726       5.6493772      0.052578257   -0.13903713    -0.059755263    1788         
    763000   0.99784728     784720.3       849922.63      5.7041784      5.4786456      5.5476599     -0.13700153    -0.042734579   -0.21491135     1785         
    764000   0.99957312     784528.36      849843.46      5.5281237      5.4598585      5.5410189      0.0088793144   0.13044434     0.14677975     1783         
    765000   0.99968985     784520.67      849843.4       5.5690119      5.5626961      5.5475762      0.17450171     0.042455257   -0.044867259    1786         
    766000   0.99872211     784949.07      850208.56      5.5781547      5.5926485      5.3705652     -0.10475497    -0.03046349    -0.061490667    1785         
    767000   0.99601247     784374.15      849456.59      5.5272186      5.2116953      5.6700454      0.063900488    0.11924961    -0.078197241    1784         
    768000   0.99265308     784920.83      849783.76      5.633591       5.5555991      5.387504      -0.025705871   -0.037069105   -0.08661042     1781         
    769000   1.0066112      784368.59      850143.58      5.490453       5.3954685      5.4276619     -0.053171238    0.14160285     0.028058062    1778         
    770000   0.99792636     784404.32      849611.82      5.4790717      5.4129468      5.5781528     -0.14123727     0.016473722    0.027173216    1786         
    771000   1.0015597      784583.87      850028.78      5.6981488      5.3247632      5.6769896     -0.13161954     0.080558626    0.062420487    1785         
    772000   1.0065096      784724.56      850492.92      5.4133284      5.3439277      5.4140704      0.050637727   -0.042497732    0.078845691    1793         
    773000   1.0070954      784620.56      850427.19      5.7742853      5.4423495      5.4542426      0.11494065    -0.084823201   -0.15196974     1785         
    774000   1.0008858      784113.18      849514.06      5.2910811      5.5161874      5.7321002     -0.24127579     0.099211459   -0.17518685     1782         
    775000   1.0029304      784475.27      850009.75      5.5479373      5.6070453      5.4723167     -0.030840774    0.10381702    -0.021043032    1780         
    776000   1.0055678      784707.66      850414.48      5.6391216      5.4229609      5.606542       0.036897872   -0.070922923    0.053939905    1774         
    777000   1.0056151      784743.84      850453.75      5.6101417      5.7255854      5.5686887      0.076011871    0.11680537    -0.0035750941   1781         
    778000   1.0056358      784706.4       850417.66      5.5903369      5.6623698      5.5146348     -0.01904436    -0.14462792     0.059957886    1786         
    779000   0.9983207      784491.37      849724.63      5.4815659      5.5240265      5.4637685     -0.0081677146  -0.049810118   -0.0084250804   1780         
    780000   1.0001481      784892         850244.68      5.6203782      5.5042559      5.6139866      0.085156772    0.0041147892   0.12164415     1782         
    781000   1.0033152      784648.92      850208.54      5.4510185      5.8371537      5.602554       0.051949915    0.019039768    0.042994495    1785         
    782000   1.0089077      784409.66      850334.72      5.5211338      5.7126692      5.6173452     -0.094006993    0.055871765    0.11057797     1791         
    783000   0.99284959     784330.04      849205.81      5.3520009      5.404179       5.5144928      0.032232077    0.15312615     0.063583955    1793         
    784000   1.0019506      784478.67      849949.13      5.2220311      5.582404       5.5343393     -0.023643604   -0.021065986   -0.0033614125   1794         
    785000   0.99553518     784338.81      849390.07      5.7495685      5.7355181      5.6311979      0.13407004    -0.037392156   -0.033795385    1797         
    786000   1.0042716      784364.28      849986.4       5.3303272      5.7083341      5.6947506      0.0045287656   0.077769993   -0.01065764     1799         
    787000   1.0059961      784848.99      850583.8       5.4196887      5.6134705      5.8427752      0.049411832    0.17484736     0.068101801    1799         
    788000   1.0008067      784409.45      849805.16      5.6146964      5.4811709      5.6600243     -0.0704466     -0.13725407    -0.010106212    1798         
    789000   0.99747739     784738.56      849916.72      5.6534508      5.5502448      5.582263       0.0087391606   0.071783122   -0.037317106    1790         
    790000   1.0020894      784800.78      850280.3       5.3779993      5.5010479      5.5257871      0.10144597     0.00078291858  0.13217844     1789         
    791000   0.99887303     784410.63      849679.99      5.5593252      5.3987245      5.6560923     -0.024398045   -0.026991975    0.04265444     1788         
    792000   0.99789189     784670.36      849875.61      5.5765798      5.5949763      5.6775147      0.024055203    0.26488378     0.13623325     1795         
    793000   1.0005583      784677.42      850056.9       5.8136424      5.4818549      5.8042991      0.0023298807   0.19396793     0.062459836    1796         
    794000   0.99690494     784711.35      849852.11      5.786703       5.5933518      5.792669      -0.026927509    0.069392438    0.061763317    1794         
    795000   0.99729724     784230.87      849397.26      5.5990102      5.769969       5.9486074     -0.23785206    -0.07379178    -0.022197463    1789         
    796000   0.99708864     784719.88      849872.64      5.6723388      5.6438378      5.5956558     -0.10564367    -0.10932792     0.014381221    1793         
    797000   0.99501724     784314.79      849332.2       5.6253144      5.7695468      5.5703102      0.013687312   -0.1442642     -0.047741594    1794         
    798000   1.0031757      784277.17      849827.68      5.9813732      5.4958032      5.6472024      0.031528179    0.034415668   -0.20469427     1793         
    799000   0.99635624     784696.5       849801.41      5.7172431      5.6509037      5.6790155      0.10211753    -0.053252027   -0.064633782    1789         
    800000   1.0011367      784883.25      850300.53      5.5338867      5.5677097      5.7034589      0.12128656     0.041619311    0.11384068     1787         
    801000   1.0041546      784648.68      850263.15      5.7860987      5.9659573      5.5962332     -0.10574724     0.033064288    0.10858734     1787         
    802000   0.99993188     784344.82      849683.37      5.502243       5.4890592      5.3474749      0.081022971   -0.35657509    -0.029694342    1789         
    803000   0.99946563     784370.1       849678.18      5.5745598      5.3755978      5.4613662      0.088889671   -0.070457863    0.12236032     1787         
    804000   0.99734756     784563.1       849732.78      5.9165307      5.6958         5.6509648     -0.13003258    -0.11793805     0.017901107    1794         
    805000   1.002318       784593.79      850088.25      5.7878846      5.3430901      5.7405945      0.14052281    -0.24723447    -0.058274929    1800         
    806000   1.0041111      784237.54      849849.17      5.5646253      5.4946813      5.4692171      0.15227558    -0.034969381   -0.028172445    1796         
    807000   0.99846416     784353.9       849596.54      5.4150362      5.4989821      5.6776067      0.089256456   -0.17412274     0.1509955      1795         
    808000   1.0041981      784546.16      850163.47      5.3853042      5.5869218      5.6734162      0.078993631   -0.011025961    0.086328315    1789         
    809000   1.0005309      784656.13      850033.81      5.557658       5.6617281      5.7228863     -0.055376159   -0.051794873   -0.079022859    1786         
    810000   0.99707362     784620.54      849772.32      5.4496441      5.4722708      5.6993474     -0.003695673   -0.0038403567   0.017486032    1792         
    811000   0.99702029     784258.39      849406.69      5.5341671      5.6490778      5.5354666      0.070763517   -0.19670793    -0.12186454     1799         
    812000   1.0012084      784370.4       849792.36      5.6773803      5.5355205      5.6551108      0.011265679   -0.095646647    0.033481974    1796         
    813000   0.99646959     784310.02      849422.33      5.8061515      5.5009579      5.528095      -0.099527987    0.053428114    0.0022722588   1798         
    814000   0.99939815     784577.68      849881.35      5.7532181      5.3833967      5.5273559     -6.9685796e-05  0.13117333    -0.034826212    1794         
    815000   1.0036201      784321.54      849901.1       5.5533018      5.5487481      5.5274981     -0.021732342   -0.12887383     0.0021927026   1803         
    816000   1.0035715      784475.35      850051.72      5.372147       5.7764526      5.6304851      0.11932557     0.10637611     0.0083358003   1798         
    817000   1.0030334      784496.95      850038.16      5.517972       5.5215069      5.6367233      0.059879261   -0.049304274    0.11467178     1803         
    818000   1.0092575      784141.63      850089.54      5.8208958      5.5824228      5.6678415     -0.017238598    0.013536234    0.052409639    1795         
    819000   0.99852818     784582.08      849828.91      5.4447061      5.7280323      5.5169245      0.021879972   -0.088826609   -0.30177243     1791         
    820000   0.99937365     784238.14      849540.21      5.7662075      5.3932322      5.6048682     -0.048738223   -0.031005452   -0.015109338    1783         
    821000   0.98931506     784527.44      849172.25      5.6177505      5.4286768      5.6179628     -0.066385184   -0.17450413     0.056894435    1790         
    822000   0.99956239     784220.29      849534.69      5.5161797      5.5470987      5.5399642     -0.029556927    0.038226786   -0.048337439    1797         
    823000   0.9973068      784463.97      849630.99      5.4467505      5.4873494      5.3070404     -0.013654864    0.21244565    -0.1383868      1798         
    824000   0.99519358     784229.98      849258.91      5.6592578      5.4152529      5.4684144     -0.13923182     0.05353028    -0.16820975     1796         
    825000   0.99728243     784541.9       849707.32      5.5845121      5.6782799      5.4339357     -0.065422185   -0.09098432     0.033687892    1792         
    826000   1.0059769      784494.89      850228.44      5.5453323      5.6758248      5.7635659      0.028707854   -0.023867723   -0.10919638     1788         
    827000   1.0021379      784617.8       850100.5       5.7046125      5.5452253      5.4960521     -0.04308033    -0.08642072    -0.077671923    1794         
    828000   1.0032077      784564.91      850117.51      5.8527573      5.5604981      5.3372404      0.24206847     0.018369883   -0.058024336    1796         
    829000   0.99653616     784523.08      849639.74      5.6721335      5.4862854      5.3460315      0.030731768    0.026688103   -0.093169303    1790         
    830000   0.99449787     784480.94      849464.41      5.4618943      5.4819768      5.441796       0.023388134    0.0068055309  -0.040971678    1793         
    831000   0.99734069     784538.75      849707.99      5.5182151      5.6697487      5.4693834      0.069787725   -0.0070802703  -0.19932984     1793         
    832000   1.0007655      784175.71      849568.73      5.4134432      5.5466438      5.4227716      0.02095775    -0.14245524    -0.035681878    1788         
    833000   1.0043919      784552.48      850182.46      5.403288       5.7345905      5.5712394     -0.14125524     0.16293963     0.074310735    1784         
    834000   0.99723799     784740.35      849902.88      5.3958877      5.3809514      5.6357519     -0.082297375   -0.072020165   -0.056695599    1786         
    835000   1.0026671      784465.12      849982.4       5.5432967      5.3351264      5.4035814      0.071093536   -0.019448286   -0.048572045    1787         
    836000   0.997833       784709.58      849910.98      5.6886413      5.4352348      5.486307       0.11309831    -0.15763279    -0.011103572    1791         
    837000   0.99817259     785003.66      850227.25      5.6134342      5.7212021      5.5661023     -0.0129582     -0.15590679    -0.013453127    1789         
    838000   0.99897079     784375.09      849650.84      5.6445064      5.3752451      5.2816999      0.0056067566  -0.11022832     0.009040942    1796         
    839000   0.99644023     784746.85      849857.24      5.4491496      5.3684327      5.6366087     -0.090728212    0.11102366    -0.13688675     1795         
    840000   0.99748202     784174.83      849353.3       5.4368939      5.4319614      5.5108597     -0.069919796    0.010132566    0.10937358     1800         
    841000   1.0011506      784607.71      850025.89      5.5021433      5.6114499      5.4245766      0.055798075   -0.069292066    0.073434453    1801         
    842000   0.99582543     784449.71      849519.93      5.6163012      5.7804244      5.5580284     -0.0016063674  -0.022939359    0.087545763    1798         
    843000   0.9990351      784411.96      849691.91      5.6763876      5.2727607      5.5507668     -0.099731737    0.078808934   -0.064697222    1799         
    844000   1.0045074      784305.76      849943.29      5.4509044      5.4331246      5.6919899      0.054624109    0.0088357507  -0.026773322    1800         
    845000   0.99936357     784166.85      849468.26      5.4821608      5.4091795      5.4784829     -0.056333641    0.041057758   -0.10800248     1801         
    846000   0.99946254     784246.08      849553.96      5.6225592      5.5943729      5.5923439     -0.072323164   -0.019354201   -0.042190487    1804         
    847000   1.002497       784521.05      850027.21      5.5506861      5.7694095      5.65394       -0.031162874   -0.079016507   -0.040372361    1804         
    848000   1.0018028      784224.01      849684.81      5.4826581      5.5111488      5.3085668     -0.0064822185  -0.003043406    0.028700956    1804         
    849000   0.9986818      784553.99      849810.86      5.618776       5.5206298      5.7206242      0.050407169    0.072177402   -0.057305993    1806         
    850000   0.99770842     784292.04      849485.3       5.6065918      5.5321469      5.7191284     -0.0063623989  -0.022597705   -0.16973946     1800         
    851000   0.99791205     784433.61      849640.18      5.4417656      5.6211518      5.5694227      0.030242766   -0.12093194    -0.041422134    1808         
    852000   1.0078315      784341.83      850196.56      5.6097408      5.3283518      5.6326026      0.083703026   -0.16550791     0.13579101     1810         
    853000   1.0072486      784062.83      849879.48      5.6457315      5.2549481      5.482407      -0.042930604   -0.094616423    0.059563508    1804         
    854000   0.99949952     784512.7       849822.99      5.525912       5.5014327      5.7407272     -0.018036364    0.043841175    0.11200951     1799         
    855000   1.0032497      784653.73      850209.08      5.4848399      5.567512       5.5251467     -0.025599744   -0.11093674     0.16974821     1795         
    856000   0.99854129     784482.01      849729.69      5.1619227      5.5413941      5.4674901     -0.066147666   -0.11492363    -0.0069271148   1793         
    857000   0.99665989     784589.41      849714.16      5.3700211      5.4901332      5.4582467      0.024195054    0.15441716     0.10704433     1791         
    858000   1.0070646      784301.14      850105.76      5.415706       5.7217373      5.6562165     -0.012025918    0.021359677    0.0715385      1785         
    859000   1.0013058      784279.55      849707.88      5.4996077      5.7087556      5.4414377     -0.15557672     0.0036574102  -0.074780035    1785         
    860000   1.005745       784610.78      850329.17      5.3159154      5.763892       5.4259599     -0.013808818   -0.028211683   -0.10607798     1792         
    861000   1.0035465      784851.7       850426.44      5.3728373      5.5971248      5.366911      -0.055207285    0.058441065   -0.11857134     1796         
    862000   0.99408329     784317.94      849274.32      5.4629499      5.5722988      5.3295039     -0.043664507    0.012486696   -0.01132891     1796         
    863000   0.99547223     784771.05      849818.19      5.4595545      5.6906496      5.6029456     -0.030643069   -0.088037222   -0.034346086    1790         
    864000   1.0024734      784288.64      849793.26      5.4374397      5.5249608      5.5770184     -0.00055132431  0.023211141    0.037312768    1791         
    865000   1.0003952      785041.58      850410.4       5.5176834      5.5388608      5.5649131      0.14585531    -0.11048226    -0.098463471    1792         
    866000   1.0069232      784533.25      850328.63      5.6801142      5.3631464      5.6847945     -0.11723938     0.19394353     0.0039744755   1799         
    867000   1.000522       784645.76      850022.87      5.7488351      5.5574344      5.6135351     -0.055282147   -0.07402373     0.0021067519   1802         
    868000   0.98541649     784460.97      848851.04      5.3123436      5.6908415      5.4932606     -0.17668184     0.025528419    0.11361483     1801         
    869000   0.99712029     784705.72      849860.55      5.6860023      5.7890408      5.5644826     -0.1047247     -0.096145716    0.18660458     1798         
    870000   1.004077       784753.64      850363.05      5.5625294      5.6720234      5.6801699      0.11482834     0.034814727    0.17978776     1797         
    871000   0.99916564     784259.12      849547.6       5.544691       5.5907629      5.5874973      0.097188078   -0.18285296    -0.079253325    1798         
    872000   0.99557101     784233.91      849287.51      5.7117542      5.5841655      5.695604      -0.040551653    0.11469272    -0.066494773    1798         
    873000   1.0050176      784187.56      849858.43      5.5570858      5.3838868      5.5110462      0.094965917    0.085525707   -0.055737555    1791         
    874000   1.0030341      784684.1       850225.35      5.3095029      5.5990215      5.6180879     -0.10011766     0.031660453    0.085075958    1794         
    875000   0.99663905     784344.59      849467.97      5.5449581      5.5854714      5.6721829     -0.059706054    0.091668044   -0.015827204    1793         
    876000   0.99506666     784630.66      849651.3       5.6875751      5.6783594      5.7783499      0.038883908   -0.015719015   -0.060164493    1791         
    877000   1.0020381      784336.17      849812.35      5.6271313      5.6616889      5.7746649     -0.063191321    0.037193349   -0.041825649    1790         
    878000   1.0022718      784683.2       850174.64      5.5103573      5.5929074      5.2959576     -0.020667165    0.0003058711   0.024484339    1792         
    879000   1.0069455      784934.56      850731.4       5.5474899      5.758563       5.5733386      0.093361517    0.085143859   -0.059744314    1789         
    880000   1.0025429      784907.72      850416.88      5.523943       5.4603167      5.4020526      0.013743754    0.088348581    0.0025678701   1789         
    881000   0.99652197     784750.23      849865.96      5.6214722      5.5790334      5.4183819      0.093038202    0.021857335   -0.043611665    1787         
    882000   1.001208       784485.81      849907.74      5.5056824      5.6689926      5.6106352     -0.011684822   -0.018121566   -0.071336758    1789         
    883000   1.0014894      784087.45      849527.77      5.405287       5.4070471      5.4853616     -0.021014208    0.037923501   -0.084520457    1790         
    884000   0.99598736     784493.19      849574         5.7102269      5.5514278      5.5859562     -0.030425124   -0.015330482   -0.028879966    1792         
    885000   1.0001219      784438.36      849789.32      5.6131859      5.3865514      5.6711712     -0.018460034   -0.032535048    0.21053156     1792         
    886000   1.0040941      784285         849895.52      5.4963698      5.4964758      5.519491       0.05191139    -0.21000242    -0.091305098    1797         
    887000   0.99858539     784507.94      849758.5       5.5456774      5.730047       5.6400084     -0.058886996   -0.010863058    0.062937554    1794         
    888000   0.99086548     784656.45      849402.58      5.4993391      5.7075863      5.6691745     -0.048531249    0.080292816   -0.028243585    1795         
    889000   1.0022475      784045.24      849535.1       5.7596123      5.6085656      5.8207736      0.063258009   -0.096270695    0.08452357     1790         
    890000   1.0009549      784605.26      850010.66      5.4610794      5.6490868      5.6738746     -0.046999942   -0.084813635    0.051112065    1784         
    891000   0.99696733     785285.12      850429.96      5.4276305      5.3967078      5.7116016      0.066684299    0.063156345   -0.047850533    1781         
    892000   1.0048902      784192.15      849854.69      5.4449808      5.4144922      5.4206278     -0.0042326338  -0.1047464      0.029817847    1789         
    893000   0.99956313     784560.74      849875.2       5.6201155      5.6242335      5.2693304      0.026146986    0.11533714    -0.028347512    1789         
    894000   1.0097854      784556.4       850538.81      5.671473       5.6818605      5.7697308      0.089015594   -0.17725859     0.0059130971   1783         
    895000   1.0033915      784339.68      849904.29      5.5399155      5.8250529      5.5076795      0.060779361   -0.001424739    0.038524754    1785         
    896000   1.0010023      784825.87      850234.37      5.6021652      5.6241635      5.7218519     -0.1321112      0.039700388    0.13244581     1781         
    897000   0.99663918     784893.87      850017.26      5.6326843      5.4807988      5.4482709      0.056771785   -0.087970813    0.02484582     1780         
    898000   0.99709492     784856.22      850009.39      5.6766196      5.8100164      5.5834648      0.021859271   -0.1725421     -0.16364886     1780         
    899000   0.99661566     784445.02      849566.87      5.7027418      5.6322031      5.6610286      0.025640553    0.050245354    0.016302369    1778         
    900000   1.0026069      784703.36      850216.71      5.4900398      5.5048137      5.4695367      0.063808426   -0.049856545   -0.15495909     1771         
    901000   1.001044       784589.28      850000.5       5.3314316      5.5967838      5.4750376     -0.16779239    -0.043609236    0.0082941943   1767         
    902000   0.9984793      784588.13      849831.77      5.5257626      5.515055       5.3355764     -0.013344471    0.12275259     0.097023266    1767         
    903000   1.0031787      784588.35      850139.05      5.5996323      5.5686303      5.5308481     -0.15592736     0.0068540465   0.089661469    1771         
    904000   1.0060173      784669.24      850405.43      5.6152129      5.52202        5.4741647     -0.12197489    -0.11639408    -0.0393983      1768         
    905000   1.0047732      784495.57      850150.46      5.5089991      5.8550924      5.6870265      0.014022988    0.078026246   -0.019101275    1763         
    906000   1.0020916      784218.71      849698.38      5.5242287      5.6314563      5.5538108     -0.10249508     0.089428209   -0.068036781    1765         
    907000   0.99660169     784533.23      849654.17      5.3347628      5.4446343      5.6210087     -0.053471432   -0.10331213     0.043682029    1761         
    908000   0.99901911     784877.25      850156.15      5.5722601      5.6332094      5.5225692      0.032834569   -0.20953525    -0.0059266514   1761         
    909000   0.99800435     784621         849833.59      5.7446853      5.486786       5.4150994     -0.12125996    -0.04735875     0.022718958    1764         
    910000   1.0057746      784813.18      850533.51      5.6528261      5.4403874      5.4692052     -0.016568243    0.030398224   -0.073112549    1767         
    911000   1.003975       784703.5       850306.24      5.6627499      5.5868203      5.4414362      0.034512723   -0.069116829   -0.19927674     1778         
    912000   1.0045877      784602.83      850245.61      5.477037       5.8823263      5.3014809     -0.098041104   -0.066642963   -0.17000287     1775         
    913000   0.99771289     784618.07      849811.63      5.5751785      5.751843       5.617792       0.036855772   -0.0325767     -0.076849322    1768         
    914000   0.99875008     784887.32      850148.64      5.4815423      5.6631593      5.3728084     -0.060119242    0.02605228    -0.020458947    1772         
    915000   1.0046274      784392.49      850037.86      5.621534       5.7054243      5.64254        0.055204043    0.16325311    -0.11738516     1772         
    916000   0.99952742     784385.33      849697.45      5.8000601      5.4800009      5.6462758     -0.0096744817   0.012339622    0.13063561     1780         
    917000   0.99500368     784320.49      849337.01      5.4666864      5.4795499      5.4537998     -0.00059765135  0.018619485    0.049839933    1778         
    918000   0.99757184     785059.67      850244.01      5.4901068      5.768569       5.5937175      0.072308517    0.015805473   -0.11281515     1783         
    919000   1.0021162      784437.36      849918.65      5.5147953      5.6498566      5.5959034      0.14985674     0.16914127    -0.059943449    1786         
    920000   1.0014931      784668.36      850108.92      5.5907172      5.4440843      5.4765909     -0.14170761     0.085531378    0.1130933      1789         
    921000   1.0028662      784836.69      850366.98      5.634761       5.7151081      5.4672888      0.031756741   -0.03705317    -0.021103974    1791         
    922000   1.0023301      784788.03      850283.29      5.4969743      5.6001601      5.5426694      0.098877507   -0.11523477     0.075033548    1788         
    923000   0.99500646     784390.23      849406.93      5.555593       5.5587486      5.639499      -0.12881381     0.063447791    0.004356449    1788         
    924000   1.0004416      784662.47      850034.32      5.3740298      5.6116595      5.2841004      0.10042418     0.045745658   -0.076941673    1790         
    925000   1.0002504      784480.81      849840.17      5.4073018      5.3561839      5.4704221     -0.006308577   -0.025247742    0.0080804309   1785         
    926000   0.99379069     784161.56      849098.83      5.5552729      5.5244039      5.4517801     -0.13501142     0.058914733   -0.12523444     1788         
    927000   1.0007803      784664.93      850058.91      5.3265722      5.6910212      5.6576137      0.031536789    0.05657035     0.24098269     1784         
    928000   1.0041552      784734.63      850349.14      5.5810622      5.6022393      5.8060952     -0.078034349   -0.098341525    0.014911688    1790         
    929000   1.0021967      784395.98      849882.52      5.5414844      5.6289938      5.505394      -0.20336383    -0.072658541    0.034658313    1786         
    930000   1.0019478      784391.68      849861.96      5.4119045      5.6442282      5.3896621      0.018845068   -0.089554868    0.024196154    1791         
    931000   0.99782554     784342.89      849543.8       5.730173       5.6570624      5.6117059      0.071948377   -0.042748938   -0.1698831      1788         
    932000   0.99612607     784784.12      849873.98      5.6017365      5.7653909      5.4002273     -0.23452565    -0.091942612   -0.02807468     1786         
    933000   1.0051589      784220.05      849900.15      5.6022642      5.6994906      5.6424221     -0.062458071    0.1646188      0.11843782     1784         
    934000   0.99893831     784759.83      850033.45      5.5641801      5.6113757      5.6236898     -0.096454651    0.07466149    -0.215614       1789         
    935000   1.0059932      784277.54      850012.15      5.8082853      5.5291195      5.5088427      0.067519944    0.1030656     -0.034665643    1786         
    936000   0.99855013     784441.56      849689.82      5.6449253      5.7560807      5.7892977     -0.0089369522   0.12441357    -0.1183374      1779         
    937000   0.99532476     784388.34      849425.84      5.4047379      5.6163885      5.7060673      0.082026148    0.0061990823  -0.0099814395   1776         
    938000   1.0007368      784453.14      849844.29      5.4920915      5.536562       5.6118136      0.01123593    -0.046228339   -0.15262401     1773         
    939000   1.0053271      784409.61      850100.7       5.7393571      5.6388679      5.8522967     -0.0096387374  -0.10419203     0.088032279    1776         
    940000   0.99878522     784957.5       850221.13      5.7125501      5.8455354      5.5542397      0.085656416    0.025368847   -0.18093401     1777         
    941000   1.004406       784659.67      850290.57      5.5930611      5.5552544      5.6917288     -0.068056887   -0.078166367   -0.03762897     1775         
    942000   0.99950708     784793.47      850104.26      5.6408978      5.6558864      5.6727271      0.1864136     -0.0051673142  -0.0030879545   1777         
    943000   0.99995158     784323.9       849663.74      5.6384376      5.640504       5.6109223      0.0063574362   0.0037399251  -0.12097884     1781         
    944000   1.001645       784877.85      850328.33      5.5229448      5.6164437      5.4843645     -0.055317982   -0.10162679     0.0029961653   1782         
    945000   1.0026172      784568.93      850082.95      5.4952583      5.5020451      5.579907       0.14170987     0.019536071   -0.20372239     1783         
    946000   1.0011052      784487.12      849902.34      5.3071515      5.4303117      5.3626987     -0.033071431    0.0034525568  -0.096210676    1787         
    947000   1.0029178      784119.8       849653.45      5.4231793      5.316049       5.3671476     -0.072547459   -0.083972114   -0.070739489    1786         
    948000   1.0003575      784542.77      849909.13      5.5106769      5.7119474      5.5554174     -0.043427854    0.31249281     0.097433404    1789         
    949000   1.0006153      785059.48      850442.69      5.6048202      5.7700975      5.4807305     -0.027400819    0.061470075   -0.17984996     1795         
    950000   1.0106184      784526.54      850563.38      5.315869       5.5522824      5.3915629     -0.12132353     0.12563403    -0.10608878     1790         
    951000   1.0024819      784527.26      850032.43      5.4057415      5.7285576      5.4851364     -0.05286119    -0.13976678     0.10370441     1784         
    952000   1.002621       784396.86      849911.12      5.5217536      5.6537397      5.3509292     -0.06682939     0.038135731    0.0023541499   1780         
    953000   1.0074873      785162.93      850995.17      5.7198935      5.7061048      5.6815986      0.2491413      0.062970803    0.10150991     1781         
    954000   1.0045786      784755.43      850397.61      5.5330097      5.6176568      5.6600939      0.072787803    0.043547057    0.019501321    1775         
    955000   1.0038204      784365.85      849958.48      5.4128556      5.4345478      5.5209343     -0.06806473     0.12812207     0.032655961    1771         
    956000   0.99826863     784740.6       849970.46      5.7566961      5.3194574      5.5210194      0.011521563   -0.15024476    -0.0041257307   1773         
    957000   0.99906509     784509.45      849791.36      5.7206332      5.4066822      5.5102387     -0.04948306    -0.058907375   -0.057879938    1780         
    958000   1.0049633      784705.98      850373.29      5.5905573      5.4331181      5.3429287      0.037475872   -0.0088355385  -0.084690489    1780         
    959000   0.9951193      784784.23      849808.31      5.5902246      5.4326731      5.6151624     -0.018399671    0.15394837    -0.0035120886   1781         
    960000   1.0014101      784089.02      849524.16      5.2939896      5.4755088      5.5211443      0.07636077     0.11882145    -0.053863943    1786         
    961000   1.0013376      784288.53      849718.94      5.6687776      5.5960997      5.5892594      0.064212771   -0.016890675   -0.078681996    1792         
    962000   0.99728909     784597.09      849762.95      5.6460573      5.393873       5.4992877     -0.022454379   -0.15622313     0.17501534     1789         
    963000   1.0049839      784853.3       850521.96      5.5905649      5.5007013      5.4912342      0.051835539   -0.054595909    0.069386275    1787         
    964000   1.0010571      784855.04      850267.11      5.5167615      5.7826785      5.3103165      0.12217923    -0.13567725     0.13661384     1782         
    965000   1.0040239      784769.1       850375.04      5.7877658      5.2991227      5.6202764     -0.10145007    -0.063200093   -0.01426331     1779         
    966000   0.99966033     784869.15      850189.95      5.5826076      5.209966       5.5675335      0.014166759   -0.1444834      0.089155303    1781         
    967000   0.9976027      784443.38      849629.73      5.2688951      5.6022212      5.4285812      0.019693944   -0.12931691    -0.21786172     1782         
    968000   0.99420754     784526.76      849491.26      5.7326791      5.6478432      5.6884108      0.22826435    -0.12104266    -0.093123936    1777         
    969000   1.0016019      784667.08      850114.75      5.6627232      5.597387       5.6668108     -0.012273169    0.08206206    -0.11766225     1779         
    970000   0.99907072     784464.82      849747.1       5.6591032      5.741427       5.6682891     -0.052862565    0.12379621    -0.048542564    1785         
    971000   1.0049731      784747.32      850415.27      5.703874       5.4566409      5.8434552      0.077339789    0.01639218    -0.11865793     1785         
    972000   0.99632029     784685         849787.55      5.2766505      5.5258926      5.5641951     -0.049609041   -0.033154593   -0.088881339    1785         
    973000   0.99823622     784739.55      849967.3       5.9011241      5.5910152      5.7381446     -0.035790652   -0.022086024    0.036213445    1780         
    974000   1.0008804      784214.01      849614.53      5.8166302      5.5076485      5.6035827     -0.056306706   -0.15927832    -0.0077776245   1782         
    975000   1.0006743      784731.44      850118.5       5.5010353      5.4811774      5.6167796      0.057335315   -0.099761648   -0.038560321    1780         
    976000   0.99530534     784449.32      849485.56      5.5009232      5.4866379      5.5021169     -0.045659847    0.12278107     0.014708593    1786         
    977000   1.0040001      784569.32      850173.7       5.3943558      5.6075116      5.5726325      0.21519576    -0.015858712   -0.011389963    1785         
    978000   0.99948811     784478.29      849787.84      5.5549735      5.7546241      5.5696661     -0.047546426    0.062042231    0.19406087     1781         
    979000   1.0039126      784510.18      850108.85      5.6369423      5.5278586      5.5605875      0.0098506515  -0.0015833832   0.042320547    1789         
    980000   1.0010042      784655.04      850063.66      5.5784971      5.3341279      5.584043      -0.085045816   -0.20054974    -0.021677943    1793         
    981000   0.9989527      784368.62      849643.19      5.7742385      5.5060272      5.6062542     -0.071777121   -0.074351174    0.14214238     1788         
    982000   0.99795496     784559.85      849769.22      5.599046       5.6436405      5.725561       0.17977386    -0.092822735   -0.05530282     1792         
    983000   1.0030244      784802.77      850343.39      5.4170638      5.615476       5.7458012      0.045848321    0.17807746    -0.11933206     1786         
    984000   0.99083732     784552.03      849296.31      5.5098871      5.3383551      5.7146098      0.12228776     0.19866971     0.022437507    1787         
    985000   1.0105696      784999.93      851033.58      5.7620915      5.6118456      5.5671957      0.01905699     0.080693934    0.13211678     1780         
    986000   0.99611009     784920.78      850009.6       5.6480825      5.5324619      5.530581      -0.063660986   -0.010111757   -0.057678367    1781         
    987000   1.0008202      784111.43      849508.02      5.3634628      5.3727424      5.2464563      0.014014827   -0.01662325    -0.1123638      1781         
    988000   0.9975487      784519.44      849702.26      5.5828992      5.4741467      5.6323672     -0.029362677   -0.068696601    0.0070400531   1771         
    989000   0.99881925     784493.82      849759.67      5.3632548      5.3792864      5.5938591      0.00785794     0.063341563    0.017646361    1770         
    990000   0.99938204     784454.96      849757.58      5.4780448      5.2795967      5.6666125     -0.068991212    0.032892548   -0.1208031      1766         
    991000   1.0010866      784635.36      850049.36      5.7844443      5.3428437      5.7300244      0.13194318     0.066962202   -0.15891921     1771         
    992000   0.99531335     784615.77      849652.53      5.4489826      5.4346517      5.4571754     -0.015021768    0.045458932    0.08918046     1774         
    993000   0.99901178     785116.29      850394.72      5.6611407      5.4086678      5.5382531     -0.12208009    -0.027626919   -0.038950356    1773         
    994000   0.9993312      784310.76      849610.06      5.8372533      5.7501839      5.5201812      0.10409077     0.05195111    -0.10700264     1778         
    995000   0.99392701     784440.67      849386.84      5.346354       5.7041523      5.4809646     -0.13894326    -0.039066583   -0.11391021     1774         
    996000   1.0015087      784489.09      849930.67      5.4627852      5.6018675      5.6175701      0.0009644714   0.097327122    0.036700805    1776         
    997000   0.99536827     784532.1       849572.45      5.98509        5.4974527      5.3997189      0.047053353    0.040205226    0.10004221     1773         
    998000   1.0000437      784573.34      849919.2       5.7070863      5.4170086      5.3649692      0.039712548    0.13538034     0.054902279    1771         
    999000   0.99936712     784404.25      849705.9       5.6297628      5.4398682      5.7418657     -0.23879649    -0.034005693    0.074451351    1774         
   1000000   0.99500362     784737.82      849754.34      5.4361509      5.6096915      5.4161397     -0.05284116     0.11085508     0.042340898    1774         
Loop time of 2825.81 on 8 procs for 1000000 steps with 43563 atoms

Performance: 305752.960 tau/day, 353.881 timesteps/s, 15.416 Matom-step/s
97.9% CPU use with 8 MPI tasks x 1 OpenMP threads

MPI task timing breakdown:
Section |  min time  |  avg time  |  max time  |%varavg| %total
---------------------------------------------------------------
Pair    | 481.71     | 485.2      | 488.25     |   9.3 | 17.17
Bond    | 181.82     | 184.22     | 186.69     |  14.2 |  6.52
Neigh   | 1499.2     | 1500.4     | 1501.2     |   1.7 | 53.10
Comm    | 216.38     | 220.96     | 225.31     |  22.3 |  7.82
Output  | 0.070562   | 0.082346   | 0.084264   |   1.6 |  0.00
Modify  | 364.37     | 365.16     | 365.74     |   2.6 | 12.92
Other   |            | 69.81      |            |       |  2.47

Nlocal:        5445.38 ave        5469 max        5419 min
Histogram: 2 0 1 0 1 0 0 1 1 2
Nghost:        4593.88 ave        4609 max        4573 min
Histogram: 1 0 0 2 0 1 1 0 2 1
Neighs:        40177.5 ave       40471 max       39679 min
Histogram: 1 0 0 1 1 1 0 0 2 2
FullNghs:      13972.2 ave       14116 max       13774 min
Histogram: 1 0 0 0 2 0 3 0 1 1

Total # of neighbors = 321420
Ave neighs/atom = 7.3782797
Ave special neighs/atom = 1.8364208
Neighbor list builds = 143404
Dangerous builds = 0
write_restart ${F}.r1a.stress.restart
write_restart Stars_NA4N10C1000rho0.85rhopoly0.8.equilibrated.r1a.stress.restart
System init for write_restart ...
Generated 0 of 3 mixed pair_coeff terms from geometric mixing rule
Total wall time: 0:47:05
