# Nonassociating Javier diagnostic decomposition input.
units lj
atom_style bond
boundary p p p
special_bonds fene
atom_modify map yes
read_data ${DATA}
reset_timestep 0
group stars type 1 2
bond_style fene
bond_coeff 1 30.0 1.5 1.0 1.0
variable rwca equal 2.0^(1.0/6.0)
pair_style lj/cut ${rwca}
pair_coeff * * 1.0 1.0 ${rwca}
neighbor 0.6 bin
neigh_modify every 1 delay 1 check yes
comm_modify vel yes
timestep 0.01
fix integrate all nve
fix thermostat all langevin 1.0 1.0 2.0 ${LANGEVIN_SEED} zero yes
compute press all pressure thermo_temp
variable st equal step
variable pxx equal c_press[1]
variable pyy equal c_press[2]
variable pzz equal c_press[3]
variable pxy equal c_press[4]
variable pxz equal c_press[5]
variable pyz equal c_press[6]
variable nxy equal c_press[1]-c_press[2]
variable nxz equal c_press[1]-c_press[3]
variable nyz equal c_press[2]-c_press[3]
compute star_chunks stars chunk/atom molecule nchunk once ids once compress yes
compute star_ids stars property/chunk star_chunks id
compute star_com stars com/chunk star_chunks
thermo 1000
thermo_style custom step temp pe etotal c_press[1] c_press[2] c_press[3] c_press[4] c_press[5] c_press[6]
thermo_modify norm no
run ${WARMUP_STEPS}
reset_timestep 0
if "${RAW} == 1" then "include ${RAW_FILE}"
if "${ONLINE} == 1" then "include ${CORR_FILE}"
if "${COM} == 1" then "include ${COM_FILE}"
run ${MEASURE_STEPS}
