# Isolated timing-only control. Same force/integration model as ../in.nonassoc_control.lmp.
units lj
atom_style bond
boundary p p p
special_bonds fene
atom_modify map yes
read_data ${DATA}
reset_timestep 0
group stars type 1 2
bond_style fene
bond_coeff 1 30.0 1.5 1.0 1.0
variable rwca equal 2.0^(1.0/6.0)
pair_style lj/cut ${rwca}
pair_coeff * * 1.0 1.0 ${rwca}
neighbor 0.6 bin
neigh_modify every 1 delay 1 check yes
comm_modify vel yes
timestep 0.01
fix integrate all nve
fix thermostat all langevin 1.0 1.0 2.0 ${LANGEVIN_SEED} zero yes

compute press all pressure thermo_temp
thermo 1000
thermo_style custom step temp pe etotal c_press[1] c_press[2] c_press[3] c_press[4] c_press[5] c_press[6]
thermo_modify norm no

run ${WARMUP_STEPS}
reset_timestep 0
run ${MEASURE_STEPS}
